N    C    H    Ag   Cd   O    Li        
   1.00000000000000     
    17.3360892634807264   -0.2180775050936860    0.9010203845118320
     0.1106266721918446    8.9169346490987493    0.9518013984805620
    -2.2728090156734351    0.2799897799311219    7.8973470244662778
   N    C    H    Ag   Cd   O    Li
    12    20    40     2     2     4     1
Direct
  0.4897930046852501  0.1650462028113093  0.7969312982091824
  0.5174139568349569  0.8043952776553900  0.1639913940716022
  0.5278100532524241  0.2098546110350836  0.2704259861680807
  0.4393963783516515  0.7252855855111536  0.7148429304322395
  0.9881719142367728  0.6269452914608684  0.7783521561514670
  0.0388122402453730  0.3711346615523746  0.1002008891062154
  0.0107561665083675  0.7441027505425080  0.1606300319772821
  0.9462921205415811  0.2371583309877738  0.6110323710625880
  0.2967773691884194  0.0481662197336986  0.2549400803060322
  0.7273957465688405  0.9692221514290518  0.8158309327115523
  0.8029974767842393  0.5364598772439185  0.1060248371044417
  0.2560122818470688  0.5384489004380775  0.8618150632366927
  0.4718478704193974  0.2699309098991029  0.6923466901834694
  0.5142749026561679  0.7002870930264991  0.2645146012343791
  0.5262858568772981  0.3119411010841727  0.3452915406046264
  0.4689720418712260  0.6453870491652780  0.6427034925590824
  0.9822196201379756  0.7322243780542061  0.6748673653158257
  0.0395927198741885  0.2371426314143253  0.1199714705199077
  0.9919676467550193  0.8201155552721845  0.2509495925197426
  0.9525458813938649  0.1362558400064868  0.5376325202103720
  0.3200818663893932  0.0961070602181755  0.1025247402491607
  0.6927945382395760  0.8477357028641627  0.8746910437143303
  0.8438936180647565  0.4066107758657723  0.0834942854318776
  0.1809781478020224  0.5350453399706355  0.8933614900887341
  0.3589372214563021  0.0086347593618311  0.4092651709494954
  0.6789558837531648  0.0631209816700702  0.6649611674411456
  0.8043566607135658  0.5614389798821340  0.2802476486726428
  0.2709332539334415  0.4586175030492051  0.7260596732753946
  0.2206792488787379  0.0447898950345913  0.2590743130138282
  0.8020389226565457  0.0088117473936709  0.8735598384888580
  0.7666122950573050  0.6277371112658335  0.9635452527884182
  0.3147214697309855  0.6103144540026497  0.9536855139495023
  0.3513262578964080  0.8950798483498275  0.4695733750408966
  0.6890664169953629  0.1817012110629133  0.6770858487610248
  0.6970464191828621  0.0343894956501195  0.5533809981984563
  0.3569450400331008  0.0893191737112003  0.4975752218202609
  0.7468647430761429  0.5353291910325441  0.3089584367733730
  0.3090044947956950  0.5263621712471604  0.6584292188301806
  0.2996795610736343  0.3481560823097374  0.7790527932261858
  0.8164332680374108  0.6788968376259731  0.2954294754831595
  0.1175670359914265  0.8235665365570368  0.5289523153444431
  0.7369281545285492  0.1035683025881649  0.1865885054749390
  0.8200894687803968  0.8611331213644320  0.5454355241240966
  0.1070331766275292  0.1610279848598500  0.7223881201419032
  0.6430706976005364  0.3506646015074751  0.8179741114706608
  0.2695702556409066  0.6917018604890979  0.3671099603432109
  0.3058635785356809  0.3573770970163628  0.3687312697508704
  0.6899661443039455  0.6274776901454799  0.5344050270955232
  0.1478311870110993  0.1404381861573875  0.7760680428076082
  0.8002206338848005  0.8954169030356033  0.4570548674715412
  0.6962201519901241  0.1114169675040717  0.2028145896811151
  0.2591512966977337  0.9656188410269660  0.7278151264518727
  0.7128637306862593  0.6155050432481076  0.6252764999051892
  0.2650515078003112  0.3771315422897109  0.3150069605339013
  0.2373100424574786  0.6839785373741247  0.2906963697283539
  0.6796361263490303  0.3934161357210814  0.8105026372688089
  0.1751597822536984  0.0794802523098149  0.1461752228035762
  0.8422762867381078  0.9353631327440475  0.9709439781312197
  0.8192974152345903  0.1181998300444853  0.8255694280053540
  0.2054293487334451  0.0090734429219972  0.3781927017939657
  0.6122128328587571  0.5340746707961586  0.0988135614230823
  0.3711736671231562  0.6178399443651404  0.9176317788600681
  0.3012721421169961  0.6644492763148937  0.0549588584418278
  0.6227582278783454  0.4617306295650689  0.0702496472745893
  0.4166704003543975  0.0132170501103481  0.3768048781349743
  0.6162787568037364  0.0416802720870855  0.6546960325427275
  0.8504477311320113  0.4878678122631454  0.3676866651779939
  0.2144469002568741  0.4430644414538086  0.6393720601856253
  0.3850375101718662  0.0960099800439805  0.1195940516067400
  0.6347447017277792  0.8160875956629413  0.8110691592614899
  0.8792922454988178  0.3483186478154758  0.2048018230155675
  0.1396497210548689  0.4696084866867977  0.8103141737383615
  0.5082175058624863  0.9869465715058015  0.9836548418495090
  0.9726407063013118  0.3455210659174336  0.8319353256984936
  0.5029475145197918  0.4948302487197787  0.4801175741377064
  0.9758593380927469  0.9198963292579047  0.4660042999601318
  0.2722236028912401  0.1337679904400139  0.9684724854469001
  0.7362571467638014  0.7523145479918404  0.0102190063480421
  0.8423173339938040  0.3635009056797078  0.9484012271608160
  0.1622674085097907  0.5998842207386658  0.0042493996502116
  0.0530536424122840  0.5934679352169981  0.0374290901343004
 
             NaN             NaN             NaN
             NaN             NaN             NaN
             NaN             NaN             NaN
             NaN             NaN             NaN
             NaN             NaN             NaN
             NaN             NaN             NaN
             NaN             NaN             NaN
             NaN             NaN             NaN
             NaN             NaN             NaN
             NaN             NaN             NaN
             NaN             NaN             NaN
             NaN             NaN             NaN
             NaN             NaN             NaN
             NaN             NaN             NaN
             NaN             NaN             NaN
             NaN             NaN             NaN
             NaN             NaN             NaN
             NaN             NaN             NaN
             NaN             NaN             NaN
             NaN             NaN             NaN
             NaN             NaN             NaN
             NaN             NaN             NaN
             NaN             NaN             NaN
             NaN             NaN             NaN
             NaN             NaN             NaN
             NaN             NaN             NaN
             NaN             NaN             NaN
             NaN             NaN             NaN
             NaN             NaN             NaN
             NaN             NaN             NaN
             NaN             NaN             NaN
             NaN             NaN             NaN
             NaN             NaN             NaN
             NaN             NaN             NaN
             NaN             NaN             NaN
             NaN             NaN             NaN
             NaN             NaN             NaN
             NaN             NaN             NaN
             NaN             NaN             NaN
             NaN             NaN             NaN
             NaN             NaN             NaN
             NaN             NaN             NaN
             NaN             NaN             NaN
             NaN             NaN             NaN
             NaN             NaN             NaN
             NaN             NaN             NaN
             NaN             NaN             NaN
             NaN             NaN             NaN
             NaN             NaN             NaN
             NaN             NaN             NaN
             NaN             NaN             NaN
             NaN             NaN             NaN
             NaN             NaN             NaN
             NaN             NaN             NaN
             NaN             NaN             NaN
             NaN             NaN             NaN
             NaN             NaN             NaN
             NaN             NaN             NaN
             NaN             NaN             NaN
             NaN             NaN             NaN
             NaN             NaN             NaN
             NaN             NaN             NaN
             NaN             NaN             NaN
             NaN             NaN             NaN
             NaN             NaN             NaN
             NaN             NaN             NaN
             NaN             NaN             NaN
             NaN             NaN             NaN
             NaN             NaN             NaN
             NaN             NaN             NaN
             NaN             NaN             NaN
             NaN             NaN             NaN
             NaN             NaN             NaN
             NaN             NaN             NaN
             NaN             NaN             NaN
             NaN             NaN             NaN
             NaN             NaN             NaN
             NaN             NaN             NaN
             NaN             NaN             NaN
             NaN             NaN             NaN
             NaN             NaN             NaN
