N    C    H    Cr   Mn   O    Li
   1.00000000000000     
  17.3193074243194012  -0.1404067118590930   0.7285470956740679
  -0.0752381689684943   7.3752559423150501  -0.0698046839876494
  -1.8124355299264598  -0.0442632855240333   6.8101172551418596
N    C    H    Cr   Mn   O    Li
12  20  40  2  2  4  1  
Direct
  0.4735687457759323  0.1442341678947414  0.7845027575287186  
  0.5006882844317079  0.7565346332403735  0.1869074499345646  
  0.5068992137975229  0.1466523207044994  0.1875582166928600  
  0.4724854142272334  0.7549418187197857  0.7808866054331961  
  0.9977186570492730  0.7217037173711895  0.8036388906555209  
  0.0187465049487178  0.3359735263453232  0.2062211185849998  
  0.0310287541562347  0.7293126626594225  0.2073422129357241  
  0.9873592376870785  0.3288644165432015  0.8019547246108625  
  0.2734220215931953  0.0250818577044536  0.1456995056320092  
  0.7120305941407454  0.9860646051872340  0.8467234845788242  
  0.7858561605572756  0.5259666190349551  0.1540881075322152  
  0.2308896941374094  0.4671936069771287  0.8689326380063753  
  0.4760503870977512  0.2603739878996580  0.6723702452232677  
  0.4968048431139195  0.6387467644943913  0.2963281805840599  
  0.4983305726560852  0.2652377203138183  0.2958541002950635  
  0.4738506232455766  0.6355922874108003  0.6675542215553617  
  0.0028787967865774  0.8385218807154141  0.6923566598541492  
  0.0178372500589367  0.2194050767327439  0.3195618947885722  
  0.0263261629017154  0.8456383040053359  0.3236679478201901  
  0.9946419467079312  0.2105527804781359  0.6909226857805800  
  0.3483570940903847  0.9958676411841940  0.1407632700487076  
  0.6328316884955225  0.9690629286995600  0.8356184389347862  
  0.8647226481197992  0.5315428624729144  0.1594715070115434  
  0.1525578509975014  0.4689795987264487  0.8607948182868037  
  0.2568182058352338  0.0969156214015415  0.3257275346826367  
  0.7417516960479793  0.9985412833180840  0.6681436586342931  
  0.7579759250916671  0.5315189972288974  0.3360193033090296  
  0.2572055584035071  0.3910641373788297  0.7008178493466849  
  0.2060710771167831  0.9914587670782540  0.9906029332820970  
  0.7654071592923570  0.9919777417671120  0.0203925948736878  
  0.7307849974624674  0.5220539020452472  0.9840222162246109  
  0.2863234622116989  0.5274890698293703  0.0246223317760126  
  0.2142093698776299  0.0083647935744829  0.3773418626872444  
  0.7774652226462379  0.1234566758033346  0.6716369742457731  
  0.7792905084660336  0.8824497476851485  0.6566596978495592  
  0.2307797512783544  0.2310279522007097  0.2972256284187226  
  0.7182006622314159  0.4148993573372044  0.3412525398879569  
  0.2981779781155101  0.4880142316400188  0.6550034568687907  
  0.2870377673024060  0.2631597155453834  0.7433807954207987  
  0.7251887193230206  0.6563881080011631  0.3416580461034196  
  0.1683757970519013  0.7257559940067960  0.5387242462851827  
  0.8622005024549767  0.2010986101627730  0.4229431483098349  
  0.8801740915525103  0.8737485506082182  0.4297621574450569  
  0.1207558512536734  0.0101317927239760  0.5620692194866285  
  0.6247835330981987  0.3171802912518516  0.5898302270413819  
  0.3344761498997056  0.7462117398114635  0.4965449740121664  
  0.3751297659318880  0.3971544238953367  0.3466765625873286  
  0.6245097574948534  0.6523999725651729  0.5565942381732990  
  0.1151790947808385  0.0922995049496675  0.6385825201927120  
  0.8372282770216509  0.8500020853701354  0.3880197921042413  
  0.8213019914555404  0.1960988418378960  0.3590986350682222  
  0.2020749549907699  0.7601307286204527  0.6172367495462054  
  0.6667395802992300  0.6722553379895295  0.6058790725022706  
  0.3716216607625382  0.4562087867215520  0.4426229869306099  
  0.2937742177945126  0.7464674450892919  0.4329792853103432  
  0.6646571570691689  0.3168896201686622  0.6592855232102021  
  0.1673240058192974  0.1090843345725607  0.9780461310244800  
  0.7426641335285157  0.9833204367490590  0.1515439133952491  
  0.8278977254713488  0.0015740433474726  0.0201301001828128  
  0.2256033329245190  0.9668266982980720  0.8555956322399170  
  0.6686301166261565  0.5188855489150249  0.9888412732105710  
  0.2667054830911335  0.5800488994653155  0.1496288280431133  
  0.3474486303493674  0.5349480788206198  0.0116997558682656  
  0.7525529333585158  0.5245597471082651  0.8505048339121700  
  0.3114815634585357  0.1091320201702368  0.4375738779237915  
  0.6918856370664742  0.9992719511870281  0.5424697028216845  
  0.8085890601572353  0.5285303451673065  0.4596166071023216  
  0.2053164176539178  0.3679845423930675  0.5820981042232748  
  0.3906356406295126  0.0105045470088817  0.2795965549788099  
  0.5954664085241061  0.9689622392707260  0.6890243310589527  
  0.9036304045434306  0.5327167189369869  0.3038876844870191  
  0.1142560725269048  0.4158063454503049  0.7273051218047550  
  0.4864279585847200  0.9500795671402140  0.9853696447077630  
  0.0062665896841650  0.5239734449386919  0.0022593716851606  
  0.4776323701752437  0.4483488954671883  0.4753485338672499  
  0.0179766636457018  0.0304829313229349  0.5136977655654845  
  0.3714498766198919  0.9484500150891030  0.9849761143783060  
  0.6057005701265872  0.9543149960446470  0.9875797458192740  
  0.8904186443345578  0.5311348040494881  0.0042707258505534  
  0.1244535328266380  0.5320727805583666  0.0028203263924640  
  0.1150526937575576  0.8059663799355022  0.0313688774909876  
