H    Li   C    N    O    Ge  Cu         
   1.00000000000000     
     6.4173095295401508   -0.9714451368578096    0.6571017044009240
    -0.2894634762894229    6.8170548725431805   -0.0229768790264183
     0.2313392620508542   -0.0451916504216208    6.6761272225999013
   H    Li   C    N    O    Ge   Cu
    14     1    10     6     2     1     1
Selective dynamics
Direct
  0.5668588515017154  0.9401111975724453  0.7051945223876745   T   T   T
  0.2103926428339371 -0.0009344591567529  0.2734973330260008   T   T   T
  0.3848223912880408  0.2293618579784082  0.2510053771539284   T   T   T
  0.1954534387017162  0.1761003256380456  0.4814954257386717   T   T   T
  0.6404425333514832  0.0257243047481976  0.1985937676472198   T   T   T
  0.4801254487480419  0.7875996549733082  0.2641274603115198   T   T   T
  0.6939039801491675  0.8897950015254555  0.4161504200713340   T   T   T
  0.3388294054441194  0.5197857194349427  0.4675009555286891   T   T   T
  0.5343926058022608  0.3630393819102111  0.9711710902714148   T   T   T
  0.6475723650910886  0.6354382583477268  0.9560176607114387   T   T   T
  0.7543936144447464  0.4607217061485780  0.7785360508064768   T   T   T
  0.3221906679788484  0.7222407291959825  0.9239977695913186   T   T   T
  0.2269685271084915  0.4563866505092968  0.9610780570381871   T   T   T
  0.1796422780933665  0.5857221462965375  0.7331221955626384   T   T   T
  0.7141429597838090  0.5051731384609242  0.1470644576293627   T   T   T
  0.9897892396246295  0.8310827833154441  0.0802644802959828   T   T   T
  0.9586728645742393  0.1958076675838274  0.7254081186456064   T   T   T
  0.9582611162574621  0.8443723954430763  0.7046104356088132   T   T   T
  0.9585569968556380  0.2041257118111943  0.0897897893715580   T   T   T
  0.4499096418473244  0.0261384672328683  0.6668940122622106   T   T   T
  0.2963712037058781  0.1148109836320805  0.3639662460576333   T   T   T
  0.5738995796158884  0.9219317946801726  0.3286959049801076   T   T   T
  0.4812735884841939  0.5008717353430195  0.5357270292255732   T   T   T
  0.6128329110241988  0.4933558237115915  0.8695501787813770   T   T   T
  0.2842219261584055  0.5755361416676422  0.8466226034516903   T   T   T
  0.9630037551580831  0.7039343557747865  0.2044772145278593   T   T   T
  0.9147639795741133  0.3154459053395410  0.6070520931625344   T   T   T
  0.9391430078807029  0.7135865143431470  0.5964939527691615   T   T   T
  0.9285084573387461  0.3278874551167630  0.2115969849471739   T   T   T
  0.4366364654628362  0.0219112248965270  0.4643421245822402   T   T   T
  0.4688928324882257  0.5277739864705122  0.7359583573119464   T   T   T
  0.3471342383972922  0.1170409623990253  0.8015515785809969   T   T   T
  0.6431648720019066  0.4809071226774285  0.4154572244764912   T   T   T
  0.0307031703036493  0.5234324561704145  0.4076726978990687   T   T   T
  0.9682474429257606  0.0178174988076239  0.9078320295861134   T   T   T
 
  0.00000000E+00  0.00000000E+00  0.00000000E+00
  0.00000000E+00  0.00000000E+00  0.00000000E+00
  0.00000000E+00  0.00000000E+00  0.00000000E+00
  0.00000000E+00  0.00000000E+00  0.00000000E+00
  0.00000000E+00  0.00000000E+00  0.00000000E+00
  0.00000000E+00  0.00000000E+00  0.00000000E+00
  0.00000000E+00  0.00000000E+00  0.00000000E+00
  0.00000000E+00  0.00000000E+00  0.00000000E+00
  0.00000000E+00  0.00000000E+00  0.00000000E+00
  0.00000000E+00  0.00000000E+00  0.00000000E+00
  0.00000000E+00  0.00000000E+00  0.00000000E+00
  0.00000000E+00  0.00000000E+00  0.00000000E+00
  0.00000000E+00  0.00000000E+00  0.00000000E+00
  0.00000000E+00  0.00000000E+00  0.00000000E+00
  0.00000000E+00  0.00000000E+00  0.00000000E+00
  0.00000000E+00  0.00000000E+00  0.00000000E+00
  0.00000000E+00  0.00000000E+00  0.00000000E+00
  0.00000000E+00  0.00000000E+00  0.00000000E+00
  0.00000000E+00  0.00000000E+00  0.00000000E+00
  0.00000000E+00  0.00000000E+00  0.00000000E+00
  0.00000000E+00  0.00000000E+00  0.00000000E+00
  0.00000000E+00  0.00000000E+00  0.00000000E+00
  0.00000000E+00  0.00000000E+00  0.00000000E+00
  0.00000000E+00  0.00000000E+00  0.00000000E+00
  0.00000000E+00  0.00000000E+00  0.00000000E+00
  0.00000000E+00  0.00000000E+00  0.00000000E+00
  0.00000000E+00  0.00000000E+00  0.00000000E+00
  0.00000000E+00  0.00000000E+00  0.00000000E+00
  0.00000000E+00  0.00000000E+00  0.00000000E+00
  0.00000000E+00  0.00000000E+00  0.00000000E+00
  0.00000000E+00  0.00000000E+00  0.00000000E+00
  0.00000000E+00  0.00000000E+00  0.00000000E+00
  0.00000000E+00  0.00000000E+00  0.00000000E+00
  0.00000000E+00  0.00000000E+00  0.00000000E+00
  0.00000000E+00  0.00000000E+00  0.00000000E+00
