H    Li   C    N    O    Mg             
   1.00000000000000     
     7.3951336614401759   -1.3407790288905816    0.6278384207700036
    -0.6234160734497439    7.7612515989707900    0.0185088015891226
     0.2020688319679912    0.0045994434085112    7.0522011148715604
   H    Li   C    N    O    Mg
    14     1    10     6     2     2
Selective dynamics
Direct
  0.5521545841469215 -0.0016917490159166  0.6860865066599521   T   T   T
  0.1972516865471959  0.0096011720728506  0.3053425419269906   T   T   T
  0.3451622174156250  0.2284864625386886  0.2784615672042309   T   T   T
  0.1923552933519355  0.1621669977448155  0.4932571264794878   T   T   T
  0.6040096242316657  0.1006426710799418  0.2070064398532470   T   T   T
  0.4956887170080018  0.8731868041762263  0.2707703571127719   T   T   T
  0.6795806287086340 -0.0002138367452400  0.3971465864162471   T   T   T
  0.3872725019481676  0.5796414737455220  0.4930684978355096   T   T   T
  0.5249951258737793  0.3651472918691451  0.9583097624430289   T   T   T
  0.6442331910419593  0.5952406888056445  0.9602142511346671   T   T   T
  0.7163444820241013  0.4554163839333885  0.7832087353695028   T   T   T
  0.3408057050439248  0.6679627420533801  0.9462195490173420   T   T   T
  0.2231709130444106  0.4390539222635470  0.9314829168102668   T   T   T
  0.2166380162208987  0.5931071527906937  0.7469483597609561   T   T   T
  0.8412231645637719  0.7699691765724009  0.3984656656900356   T   T   T
  0.9693560343124737  0.7748486600136700  0.0762951719550566   T   T   T
  0.9007588850724648  0.1522564037256003  0.7045497752041513   T   T   T
  0.0054450449856123  0.7875445269997090  0.6506291313957275   T   T   T
  0.0165796857706032  0.1831665758391214  0.0972987226782715   T   T   T
  0.4331955740005868  0.0444705597012867  0.6504838879879985   T   T   T
  0.2817783251686981  0.1182489908872990  0.3816580135018758   T   T   T
  0.5578024498303261  0.0042152445705274  0.3273931990374049   T   T   T
  0.4996756206279608  0.5435168402507311  0.5578145869335830   T   T   T
  0.5972037473792799  0.4827567595539581  0.8678914612158464   T   T   T
  0.3027256581274365  0.5581792226240769  0.8479043109519913   T   T   T
  0.9413241641993204  0.6450103007819133  0.1747741816031222   T   T   T
  0.8540927858656386  0.2560798223512080  0.6133954538365893   T   T   T
  0.0059461051211706  0.6605478119452991  0.5568652929280821   T   T   T
  0.9748130674677656  0.2814844150812554  0.2094624767272566   T   T   T
  0.4253412954488247  0.0598687568003725  0.4626090519842015   T   T   T
  0.4692996273949818  0.5246265065429970  0.7472501464359763   T   T   T
  0.3185572586712646  0.0775480222224346  0.7802881046050534   T   T   T
  0.6397234860342040  0.5218117563166896  0.4500834953806195   T   T   T
  0.8833231834410785  0.4465695769273104  0.3979861930246497   T   T   T
  0.0434471499093139 -0.0024611070205478  0.8656964788983095   T   T   T
 
  0.00000000E+00  0.00000000E+00  0.00000000E+00
  0.00000000E+00  0.00000000E+00  0.00000000E+00
  0.00000000E+00  0.00000000E+00  0.00000000E+00
  0.00000000E+00  0.00000000E+00  0.00000000E+00
  0.00000000E+00  0.00000000E+00  0.00000000E+00
  0.00000000E+00  0.00000000E+00  0.00000000E+00
  0.00000000E+00  0.00000000E+00  0.00000000E+00
  0.00000000E+00  0.00000000E+00  0.00000000E+00
  0.00000000E+00  0.00000000E+00  0.00000000E+00
  0.00000000E+00  0.00000000E+00  0.00000000E+00
  0.00000000E+00  0.00000000E+00  0.00000000E+00
  0.00000000E+00  0.00000000E+00  0.00000000E+00
  0.00000000E+00  0.00000000E+00  0.00000000E+00
  0.00000000E+00  0.00000000E+00  0.00000000E+00
  0.00000000E+00  0.00000000E+00  0.00000000E+00
  0.00000000E+00  0.00000000E+00  0.00000000E+00
  0.00000000E+00  0.00000000E+00  0.00000000E+00
  0.00000000E+00  0.00000000E+00  0.00000000E+00
  0.00000000E+00  0.00000000E+00  0.00000000E+00
  0.00000000E+00  0.00000000E+00  0.00000000E+00
  0.00000000E+00  0.00000000E+00  0.00000000E+00
  0.00000000E+00  0.00000000E+00  0.00000000E+00
  0.00000000E+00  0.00000000E+00  0.00000000E+00
  0.00000000E+00  0.00000000E+00  0.00000000E+00
  0.00000000E+00  0.00000000E+00  0.00000000E+00
  0.00000000E+00  0.00000000E+00  0.00000000E+00
  0.00000000E+00  0.00000000E+00  0.00000000E+00
  0.00000000E+00  0.00000000E+00  0.00000000E+00
  0.00000000E+00  0.00000000E+00  0.00000000E+00
  0.00000000E+00  0.00000000E+00  0.00000000E+00
  0.00000000E+00  0.00000000E+00  0.00000000E+00
  0.00000000E+00  0.00000000E+00  0.00000000E+00
  0.00000000E+00  0.00000000E+00  0.00000000E+00
  0.00000000E+00  0.00000000E+00  0.00000000E+00
  0.00000000E+00  0.00000000E+00  0.00000000E+00
