N    C    H    Pt   Pb   O    Li        
   1.00000000000000     
    15.6580203475077422    0.2241450037390720   -0.9699706018075190
     0.2734635231129912    7.5294875016788350    0.0356993494499573
    -2.3491574512986984    0.1013497734142618    6.9764326809964361
   N    C    H    Pt   Pb   O    Li
    12    20    40     2     2     4     1
Direct
  0.4605924884673026  0.1903741711123809  0.7973926293964102
  0.5472420246691589  0.8119586204737673  0.2130783522705626
  0.5372057962842728  0.1818793335329015  0.2020571901072991
  0.4661592450395503  0.8145150905597637  0.8027726864162772
  0.9628621478303234  0.6886771105126173  0.7970947217251813
  0.0456873572032435  0.3057486555271727  0.2023173358651408
  0.0313614040201013  0.6778600015854469  0.2033341969467201
  0.9792795877424896  0.3044995318346778  0.8092714815157673
  0.2799783166340806  0.0078047168890142  0.2097823549664503
  0.7262693762594536 -0.0006399555535526  0.8017948975535759
  0.7752905124734999  0.4980801227920630  0.1975075156020432
  0.2243351604413937  0.5011674884956597  0.8062286188466945
  0.4427136447790809  0.3100517019110365  0.6837177225329605
  0.5697860492038612  0.7150167494803240  0.3521957115918244
  0.5710728169948466  0.2824847214465948  0.3280463905168195
  0.4368868462055690  0.7121293837971756  0.6776422422209883
  0.9677814597230744  0.7900520031852805  0.6772340500827367
  0.0707181108546446  0.1808454947670093  0.3116938482278717
  0.0515693271077291  0.7601213045057508  0.3496543828575094
  0.0015856182646240  0.1804287360914579  0.7358175455171122
  0.3605668319743635  0.0025101835243965  0.1866154923218698
  0.6452466400688007  0.9975324609970441  0.8226027537828804
  0.8563602728874072  0.4951925715001527  0.1751723491478603
  0.1429455899920447  0.4995947118441798  0.8255344214830755
  0.2755840328872706  0.0100011398300344  0.4051182654443947
  0.7309301581828734  0.9973177790442427  0.6071594956929807
  0.7715860561586153  0.5024982664493525  0.3955789693106291
  0.2299881255700440  0.4929748908608066  0.6109133027021965
  0.1953185105383856  1.0020284880989536  0.0478710460781775
  0.8131033806052532 -0.0008444308041803  0.9576337249265652
  0.6875759365117426  0.5009559205929931  0.0416636972457635
  0.3113223807397455  0.5022653296170081  0.9624762031413115
  0.2421741686184952  0.8913270008506342  0.4259423990881050
  0.7651008090576539  0.1151000034731956  0.5870934743619503
  0.7696447472395603  0.8751483859920445  0.5954504417354031
  0.2349901009926732  0.1288163565455261  0.4179391999498065
  0.7346376865401412  0.3889261960374131  0.4161116407712736
  0.2644855814548450  0.6094098210854558  0.5879359570972625
  0.2699511491804464  0.3703189117177301  0.6050578962643853
  0.7331602179284525  0.6252169965469474  0.4075411918122493
  0.1713353757465454  0.8332381130626483  0.6351890332598470
  0.8019913641791336  0.1843363219639585  0.3321388749504931
  0.8173793818189374  0.8164317429686720  0.3463868749636954
  0.1641962072303170  0.1725823481892415  0.6425032145927578
  0.6741638072623392  0.3294632027600237  0.6420774141779098
  0.3168787743678766  0.6830531338848564  0.3506909235331895
  0.3231952282822963  0.3259033243587537  0.3563653418353233
  0.6742783987682739  0.6764822299818839  0.6477408153788097
  0.2025612674850641  0.1510714764868665  0.7403829515804348
  0.7798317928166503  0.8584809253567163  0.2559033052505056
  0.7674307038909122  0.1384579124586860  0.2476778635918626
  0.2114239638694630  0.8637418400941321  0.7212487561705873
  0.7102875861445451  0.6454180612414706  0.7454256152412527
  0.2889985132913011  0.3601728699862307  0.2578794949277891
  0.2892162204497152  0.6430662338012672  0.2535687386178546
  0.7060549354459258  0.3616065738747352  0.7396180381791033
  0.1502049225880664  0.1248792510992442  1.0014754696028767
  0.8518511655934680  0.8712274450576470  1.0078933866040751
  0.8466224121312104  0.1255097028041835  0.9834814082154149
  0.1818796462544156  0.8753041632929358 -0.0302255199766889
  0.6480754873879316  0.6281063528898714 -0.0039175138741346
  0.3510179853763952  0.3749270816396684  1.0089876340439097
  0.3445592863325642  0.6286378185558983  0.9880374535739088
  0.6544117555426820  0.3752222033785365  0.0069621165671907
  0.3457002210083858  0.0069999987836053  0.5159160215040037
  0.6610596231745559  0.0025682305279458  0.4950768909734424
  0.8419258832042695  0.4951248993693172  0.5073623820633959
  0.1602477204205952  0.4948659523230862  0.4982204447394702
  0.4225786611564133  0.0002240223789304  0.3211201775721974
  0.5843884663221733  0.9991171724707391  0.6864658871564470
  0.9166417551412946  0.4962519785780629  0.3123759159254353
  0.0837661397478307  0.4931946491863688  0.6880783259407407
  0.5018437941050268 -0.0014770762676137  0.0026557015528843
  1.0002078956956071  0.4960270559320200  1.0007013522517700
  0.4706334394550131  0.5055431493252377  0.4362357121030724
  0.9618441241715010  0.0148379276111304  0.4251555026243449
  0.3642638678658828  0.0016934657600816  0.0132785821274220
  0.6396143430182105  0.9955442440481299 -0.0062367998861557
  0.8647710090444226  0.4937877980197977  1.0039266934904703
  0.1345376082282310  0.5073280225905454  0.9966866893930936
  0.0460855232027786  0.9051422391194509  0.9738705635262599
 
             NaN             NaN             NaN
             NaN             NaN             NaN
             NaN             NaN             NaN
             NaN             NaN             NaN
             NaN             NaN             NaN
             NaN             NaN             NaN
             NaN             NaN             NaN
             NaN             NaN             NaN
             NaN             NaN             NaN
             NaN             NaN             NaN
             NaN             NaN             NaN
             NaN             NaN             NaN
             NaN             NaN             NaN
             NaN             NaN             NaN
             NaN             NaN             NaN
             NaN             NaN             NaN
             NaN             NaN             NaN
             NaN             NaN             NaN
             NaN             NaN             NaN
             NaN             NaN             NaN
             NaN             NaN             NaN
             NaN             NaN             NaN
             NaN             NaN             NaN
             NaN             NaN             NaN
             NaN             NaN             NaN
             NaN             NaN             NaN
             NaN             NaN             NaN
             NaN             NaN             NaN
             NaN             NaN             NaN
             NaN             NaN             NaN
             NaN             NaN             NaN
             NaN             NaN             NaN
             NaN             NaN             NaN
             NaN             NaN             NaN
             NaN             NaN             NaN
             NaN             NaN             NaN
             NaN             NaN             NaN
             NaN             NaN             NaN
             NaN             NaN             NaN
             NaN             NaN             NaN
             NaN             NaN             NaN
             NaN             NaN             NaN
             NaN             NaN             NaN
             NaN             NaN             NaN
             NaN             NaN             NaN
             NaN             NaN             NaN
             NaN             NaN             NaN
             NaN             NaN             NaN
             NaN             NaN             NaN
             NaN             NaN             NaN
             NaN             NaN             NaN
             NaN             NaN             NaN
             NaN             NaN             NaN
             NaN             NaN             NaN
             NaN             NaN             NaN
             NaN             NaN             NaN
             NaN             NaN             NaN
             NaN             NaN             NaN
             NaN             NaN             NaN
             NaN             NaN             NaN
             NaN             NaN             NaN
             NaN             NaN             NaN
             NaN             NaN             NaN
             NaN             NaN             NaN
             NaN             NaN             NaN
             NaN             NaN             NaN
             NaN             NaN             NaN
             NaN             NaN             NaN
             NaN             NaN             NaN
             NaN             NaN             NaN
             NaN             NaN             NaN
             NaN             NaN             NaN
             NaN             NaN             NaN
             NaN             NaN             NaN
             NaN             NaN             NaN
             NaN             NaN             NaN
             NaN             NaN             NaN
             NaN             NaN             NaN
             NaN             NaN             NaN
             NaN             NaN             NaN
             NaN             NaN             NaN
