N    C    H    Fe   Ni   O    Li        
   1.00000000000000     
    17.1479220963666457    0.2685164897103110    0.2427748300743940
    -0.4288326611343947    6.9197548718357140    0.0204229120709394
    -0.8858866642559736   -0.0696953106348409    6.9870711411999418
   N    C    H    Fe   Ni   O    Li
    12    20    40     2     2     4     1
Direct
  0.5021631488263441  0.1616316612415981  0.8066671433946638
  0.4946783660336305  0.7736405832343068  0.1921352714384792
  0.4967817709034005  0.1633900689056202  0.1907365169846638
  0.5005903319611652  0.7730438833125405  0.8072835115961823
  1.0013321205380594  0.7305315435950530  0.7821099370443974
  0.9964433883506635  0.3451926299875164  0.1712925024201589
  0.9945495179774314  0.7361539619780636  0.1656040060524309
  0.0039548745219787  0.3406730126101674  0.7895365463760726
  0.2596023942758744  0.9886936658738907  0.0508335981214183
  0.7397065407109136  0.9936006243804129  0.9793962467397518
  0.7556347682237858  0.4961152506239984  0.9900794640048201
  0.2449324466201901  0.5160309554650852  0.0052911256984715
  0.5033837061512112  0.2800885258926165  0.6875124679751236
  0.4957280801420519  0.6559199189301189  0.3123266850718972
  0.4978862065905423  0.2812489381548473  0.3108988667086718
  0.5013306669657807  0.6556119769527941  0.6874453212633101
  1.0007082707742261  0.8489863395834815  0.6617816549058894
  0.9976063128399759  0.2281331493057360  0.2920072583784469
  0.9958245111727523  0.8537426686695998  0.2866532572945398
  0.0030497787366867  0.2244294791540716  0.6680028752181882
  0.3380323004982325  0.9824265716502260  0.0803018973423726
  0.6605714050520470  0.9824654033416672  0.9263921466422458
  0.8345825653785945  0.5089875700551703  0.0435148141586438
  0.1693909260966086  0.5396416232341873  0.9326780481465151
  0.2172614311918855  0.0316683475709241  0.2127547781179646
  0.7930869845653485  0.9986459810983640  0.8305041110579640
  0.7015878517051461  0.4903561428346193  0.1382486790788900
  0.3033197513409215  0.4888174924487138  0.8710438473349562
  0.2110755144007090  0.9477113589941671  0.8760634439625353
  0.7718819276935168  0.0003520866855128  0.1653836000182638
  0.7240271816178511  0.4895130095206919  0.8040433710999983
  0.2701879612832516  0.5254865334170912  0.1948145358775137
  0.1820727590890961  0.9041445867266290  0.2527372280508066
  0.8303771043093440  0.1319116148794719  0.8435924418005626
  0.8304368559218508  0.8740544069935526  0.8455569244940473
  0.1784884767012264  0.1513641210645440  0.1755107924962580
  0.6645495424103780  0.3568119957018187  0.1242129148455020
  0.3487959346877033  0.6057035395397969  0.8890270566001462
  0.3299802096985256  0.3493676349613848  0.8983609588618653
  0.6640642781659973  0.6144953738283556  0.1221057863618682
  0.1283114677047577  0.6365397874125779  0.4489005867021519
  0.8515973705877058  0.3165375107588568  0.5286348550614951
  0.8480290542054455  0.6966872028452343  0.5272242241146070
  0.1511853666618603  0.2653636996770359  0.5109790420162406
  0.6441495580167526  0.1736952200883432  0.4459237629333262
  0.3486090157827523  0.8377906971896347  0.5823694335397389
  0.3555982687499107  0.2281320550769874  0.5646830214723726
  0.6443260883759691  0.7846244354674063  0.4461170358308612
  0.1883352431627838  0.2358744967858740  0.5682127437128249
  0.8224309773207356  0.7389171998869949  0.4455294111684560
  0.8213604192994668  0.2762326346956471  0.4517100677826439
  0.1553702686285162  0.6925156505557701  0.5224542438588550
  0.6789874607027090  0.7571744098781293  0.5139326932946809
  0.3227718488336846  0.2744003618679438  0.5043013634192768
  0.3261990004800894  0.7970862617033591  0.4923903661729013
  0.6785216676987924  0.2082328699709835  0.5149774938797328
  0.1737226487926244  0.0705177540206512  0.8375833601694966
  0.8354055416226839  0.0110744576810387  0.1935462726893581
  0.7325845953294358  0.9971764697210465  0.2756321601917566
  0.2459701436049563  0.9139404324247259  0.7609549214788872
  0.6605096992610070  0.4799445884644561  0.7741112259977645
  0.3323123848740377  0.5106305628010667  0.2380870977700923
  0.2272648718509452  0.5453747619808242  0.2939730295590220
  0.7636632388280619  0.4929495256172104  0.6945308078211903
  0.2582539206725495  0.0751136286260919  0.3369678530294063
  0.7587060463477886  0.9937554917323997  0.6900461852694924
  0.7355677101964901  0.4955747089691731  0.2791703698792098
  0.2741132179069860  0.4909358705294765  0.7250470815714589
  0.3639172680930464  0.0036876410707965  0.2286937216952372
  0.6417490731045851  0.9780741152572731  0.7727439368775589
  0.8529987529389093  0.5115346249410322  0.1973554817886085
  0.1552458642135234  0.5159397993232772  0.7793190093688976
  0.4981034406100382  0.9675511595537372  0.9988623501870434
  0.9983774015797560  0.5357071143472821  0.9779663704980334
  0.4999725780961781  0.4681869078564389  0.4996512860876144
  0.9995491305853379  0.0383501581178512  0.4773587464274424
  0.3808215483176801  0.9548831425023506  0.9466865050838367
  0.6130447290369946  0.9780401244475173  0.0521435516428654
  0.8827430271638068  0.5168847038265607  0.9186254431973049
  0.1158433159414389  0.5637156691502769  0.0461539370911704
  0.1014900603411490  0.8285553496678413  0.9678811997580562
 
             NaN             NaN             NaN
             NaN             NaN             NaN
             NaN             NaN             NaN
             NaN             NaN             NaN
             NaN             NaN             NaN
             NaN             NaN             NaN
             NaN             NaN             NaN
             NaN             NaN             NaN
             NaN             NaN             NaN
             NaN             NaN             NaN
             NaN             NaN             NaN
             NaN             NaN             NaN
             NaN             NaN             NaN
             NaN             NaN             NaN
             NaN             NaN             NaN
             NaN             NaN             NaN
             NaN             NaN             NaN
             NaN             NaN             NaN
             NaN             NaN             NaN
             NaN             NaN             NaN
             NaN             NaN             NaN
             NaN             NaN             NaN
             NaN             NaN             NaN
             NaN             NaN             NaN
             NaN             NaN             NaN
             NaN             NaN             NaN
             NaN             NaN             NaN
             NaN             NaN             NaN
             NaN             NaN             NaN
             NaN             NaN             NaN
             NaN             NaN             NaN
             NaN             NaN             NaN
             NaN             NaN             NaN
             NaN             NaN             NaN
             NaN             NaN             NaN
             NaN             NaN             NaN
             NaN             NaN             NaN
             NaN             NaN             NaN
             NaN             NaN             NaN
             NaN             NaN             NaN
             NaN             NaN             NaN
             NaN             NaN             NaN
             NaN             NaN             NaN
             NaN             NaN             NaN
             NaN             NaN             NaN
             NaN             NaN             NaN
             NaN             NaN             NaN
             NaN             NaN             NaN
             NaN             NaN             NaN
             NaN             NaN             NaN
             NaN             NaN             NaN
             NaN             NaN             NaN
             NaN             NaN             NaN
             NaN             NaN             NaN
             NaN             NaN             NaN
             NaN             NaN             NaN
             NaN             NaN             NaN
             NaN             NaN             NaN
             NaN             NaN             NaN
             NaN             NaN             NaN
             NaN             NaN             NaN
             NaN             NaN             NaN
             NaN             NaN             NaN
             NaN             NaN             NaN
             NaN             NaN             NaN
             NaN             NaN             NaN
             NaN             NaN             NaN
             NaN             NaN             NaN
             NaN             NaN             NaN
             NaN             NaN             NaN
             NaN             NaN             NaN
             NaN             NaN             NaN
             NaN             NaN             NaN
             NaN             NaN             NaN
             NaN             NaN             NaN
             NaN             NaN             NaN
             NaN             NaN             NaN
             NaN             NaN             NaN
             NaN             NaN             NaN
             NaN             NaN             NaN
             NaN             NaN             NaN
