N    C    H    Pd   O    Li             
   1.00000000000000     
    21.0679508690116002    1.1311951672203100    3.2154943242945802
     1.0236621638485821    7.2539774633401182    0.1228996278286520
    -0.1169661229522708   -0.1226890106499866    7.2836366437616382
   N    C    H    Pd   O    Li
    12    20    40     4     4     1
Direct
  0.5145767333822142  0.1883121572212635  0.7639053969371148
  0.5097992259721780  0.8061382872602202  0.1549651590357236
  0.5083578790554033  0.1937397183902281  0.1533851226720056
  0.5148903365763671  0.8018660074395392  0.7659373919403010
  0.0252655526331997  0.5841146473702143  0.8557104205412589
  0.9809148258213410  0.2246163743510673  0.2842817556023973
  0.0267100639632501  0.5846627849625758  0.2578826409219919
  0.9779183294856070  0.2221794242436888  0.8721733233200697
  0.2500212884846258  0.0796326003503268  0.9323431662958097
  0.7570408787026195  0.9975779136783475  0.8251516496095361
  0.7470378016138236  0.4969415148094510  0.2247084329697143
  0.2941155905387902  0.5556867750956345  0.9301120326510088
  0.5149773092265503  0.3016505854962168  0.6508922330309355
  0.5100009604406384  0.6926160683701018  0.2678730427409680
  0.5093850041139986  0.3065565952951108  0.2664373969531688
  0.5146997102260042  0.6886916663537096  0.6526448784801006
  0.0110945786802552  0.7018927379543362  0.7504638328506149
  0.9835108052083622  0.1038035314635958  0.3897486217324189
  0.0121747544219847  0.7020410168844076  0.3750091935418635
  0.9815824300307169  0.1017862932517441  0.7628311721342365
  0.3162017441290177  0.0164671046424498  0.9168698073250831
  0.7262245508919779  0.9486925965267727  0.9929613033286708
  0.7756905579876060  0.4567702346906064  0.0419235446961907
  0.2345925744640981  0.5528708950082599  0.8809300941953153
  0.2134077085726784  0.1355604370794562  0.1143520759049309
  0.7213954506184415  0.0246597489825371  0.6657323619599058
  0.7883337046091887  0.4909948009861164  0.3709299898169893
  0.3513122790348140  0.5080539977811109  0.7887507687520559
  0.2184630756843127  0.0867113057847370  0.7804627251472160
  0.8182773505028004  0.0268435247678632  0.8089656600559252
  0.6825951661277030  0.5542196841560848  0.2668258449557130
  0.3029888578983292  0.6073813775690778  0.1029703640692145
  0.1779238197415569  0.0466324113641186  0.1508637999475708
  0.7092880770647757  0.1733687795470378  0.6364445301072010
  0.7504468763172701  0.9495680414264411  0.5431728792987505
  0.1880601206493537  0.2807494051546260  0.1139215778486455
  0.7688188923536852  0.4203816093222509  0.4917589825243452
  0.3671847758984942  0.6361531146764476  0.7418627469319736
  0.3899680638044132  0.4178191559103940  0.8492948269703633
  0.7907985189558956  0.6332270707952888  0.4127052587971073
  0.1591026281303530  0.6241010124504545  0.4464514010120695
  0.8618013891002329  0.0638341040718844  0.3129022830277088
  0.8947578634607007  0.6762428138000234  0.1073525905760755
  0.0934406509249513  0.2778748890578294  0.5172425065091929
  0.6106851240162673  0.3330031906375902  0.9455670069769729
  0.0164939696844323  0.9037761310400302  0.0536861201168327
  0.3565846440685603  0.0917162252977663  0.4485455400280206
  0.6316415178181876  0.0299003310503095  0.3572260693334394
  0.1268373119628416  0.2897423532970506  0.5294457636099641
  0.8623767720749530  0.7414238652789632  0.1164063740817282
  0.8317916617405027  0.0434331744792444  0.2801242248225383
  0.1756852535039454  0.5733599482300552  0.3583995250658917
  0.6589256909577746  0.6445509525254177  0.7239386556531895
  0.3652726294520404  0.1410544040723236  0.3610326450994745
  0.0459830839029081  0.9243751146300155  0.0874585991631313
  0.6423724531397957  0.3649738648356020  0.9290762564448656
  0.1665647748384352  0.1343646631079020  0.7977269390639076
  0.8391280734465120  0.0725867792298573  0.6774934306947136
  0.8428534770015736  0.0111692537245657  0.9306245529268133
  0.2470450200764070  0.0397854828921318  0.6483837502727144
  0.6630211807248172  0.5915953995813632  0.4100392729863362
  0.3518841504480853  0.6071274097199807  0.1298387783926137
  0.2608630855000314  0.6500703064941581  0.2054470572376633
  0.6534324854642486  0.5662351334117116  0.1548641735633309
  0.2467110336966968  0.1222318595470361  0.2181190158163953
  0.6766623708426713  0.9711310373663006  0.6964297881226333
  0.8369933839719396  0.4155386552502880  0.3187785473360017
  0.3394134361026874  0.4330810497488538  0.6720393043647430
  0.3352757110588818  0.0198207703697514  0.0506881872043000
  0.6766760335353789  0.9283987235364324  0.9835086004282559
  0.8285157080456531  0.4097258141686240  0.0304514965800984
  0.2359643849489507  0.5055991397121994  0.7366619822655902
  0.5118788139325686  0.9972178438091397  0.9594816906448651
 -0.0002146522408179  0.3993418342948602  0.0678586680643182
  0.5126617527972710  0.4970543681218252  0.4592661096553009
  0.9943292375623544  0.9005565017915578  0.5701627063704222
  0.3501654412795940  0.9627208546705990  0.7685519737694294
  0.7518008332139476  0.9293308782883231  0.1359433998963645
  0.7450579495069046  0.4728750703369230  0.9085419495241054
  0.1828633259516082  0.5972757603822072  0.9909477676250097
  0.0923208402743963  0.6271540339847070  0.0267430882872206
 
             NaN             NaN             NaN
             NaN             NaN             NaN
             NaN             NaN             NaN
             NaN             NaN             NaN
             NaN             NaN             NaN
             NaN             NaN             NaN
             NaN             NaN             NaN
             NaN             NaN             NaN
             NaN             NaN             NaN
             NaN             NaN             NaN
             NaN             NaN             NaN
             NaN             NaN             NaN
             NaN             NaN             NaN
             NaN             NaN             NaN
             NaN             NaN             NaN
             NaN             NaN             NaN
             NaN             NaN             NaN
             NaN             NaN             NaN
             NaN             NaN             NaN
             NaN             NaN             NaN
             NaN             NaN             NaN
             NaN             NaN             NaN
             NaN             NaN             NaN
             NaN             NaN             NaN
             NaN             NaN             NaN
             NaN             NaN             NaN
             NaN             NaN             NaN
             NaN             NaN             NaN
             NaN             NaN             NaN
             NaN             NaN             NaN
             NaN             NaN             NaN
             NaN             NaN             NaN
             NaN             NaN             NaN
             NaN             NaN             NaN
             NaN             NaN             NaN
             NaN             NaN             NaN
             NaN             NaN             NaN
             NaN             NaN             NaN
             NaN             NaN             NaN
             NaN             NaN             NaN
             NaN             NaN             NaN
             NaN             NaN             NaN
             NaN             NaN             NaN
             NaN             NaN             NaN
             NaN             NaN             NaN
             NaN             NaN             NaN
             NaN             NaN             NaN
             NaN             NaN             NaN
             NaN             NaN             NaN
             NaN             NaN             NaN
             NaN             NaN             NaN
             NaN             NaN             NaN
             NaN             NaN             NaN
             NaN             NaN             NaN
             NaN             NaN             NaN
             NaN             NaN             NaN
             NaN             NaN             NaN
             NaN             NaN             NaN
             NaN             NaN             NaN
             NaN             NaN             NaN
             NaN             NaN             NaN
             NaN             NaN             NaN
             NaN             NaN             NaN
             NaN             NaN             NaN
             NaN             NaN             NaN
             NaN             NaN             NaN
             NaN             NaN             NaN
             NaN             NaN             NaN
             NaN             NaN             NaN
             NaN             NaN             NaN
             NaN             NaN             NaN
             NaN             NaN             NaN
             NaN             NaN             NaN
             NaN             NaN             NaN
             NaN             NaN             NaN
             NaN             NaN             NaN
             NaN             NaN             NaN
             NaN             NaN             NaN
             NaN             NaN             NaN
             NaN             NaN             NaN
             NaN             NaN             NaN
