H    Li   C    N    O    Pt   Mn        
   1.00000000000000     
     7.6429700608965296   -1.1312693699086576    0.4068456850335517
    -0.5283596752530259    6.9085273690565572    0.1729649961517351
     0.0276298324505570    0.1379070734619726    6.6575573181100935
   H    Li   C    N    O    Pt   Mn
    14     1    10     6     2     1     1
Selective dynamics
Direct
  0.5750019252560506  0.0073704490444540  0.7181578435752415   T   T   T
  0.2396280879827357 -0.0175026254543487  0.2707151313224083   T   T   T
  0.3516009195389080  0.2373279748172716  0.2647827832266183   T   T   T
  0.1962366032360495  0.1318058690187599  0.4697353721256868   T   T   T
  0.6360457675369611  0.1528079788052768  0.2286315735311758   T   T   T
  0.5412473685108309  0.8926212916691595  0.2474872622199153   T   T   T
  0.7026184303045728  0.0069192202696041  0.4210881780731942   T   T   T
  0.2485962726730284  0.5673385231351636  0.5653069946056248   T   T   T
  0.5844981883832080  0.4229802292209945  0.9710398042907836   T   T   T
  0.6912761753789183  0.6555680362646124  0.8487189692924217   T   T   T
  0.6627364333848624  0.4380654591632724  0.7117602503150412   T   T   T
  0.3489686400592419  0.7212505954342100  0.9862818092797521   T   T   T
  0.3131376968441041  0.4666611541306248  0.0662693219449420   T   T   T
  0.1723377363234580  0.5455465279014629  0.8909123870110089   T   T   T
  0.7301265154140429  0.6807685393270940  0.3625633535076873   T   T   T
  0.9515725427237931  0.7722311747117198  0.0205302582052037   T   T   T
  0.9534932231320172  0.1191522133687662  0.6990855091916640   T   T   T
  0.0198013858631849  0.7846038096858551  0.6502184259221364   T   T   T
  0.0322580150609046  0.1455820247695996  0.0498178533282535   T   T   T
  0.4500934066622593  0.0377830658903977  0.6662491085618741   T   T   T
  0.2988323052898479  0.1041323202408575  0.3635640896927450   T   T   T
  0.5897779036597490  0.0231279596553934  0.3339223566799872   T   T   T
  0.3870811339750498  0.5564836840765897  0.5824798996647051   T   T   T
  0.6011652627522878  0.5123262561918622  0.8280305799848668   T   T   T
  0.3083387122693177  0.5690842613694078  0.9376180127912259   T   T   T
  0.9246417940266436  0.6337558190650262  0.1423056098040275   T   T   T
  0.9253459722875319  0.2502664332435766  0.5916790115894167   T   T   T
  0.9396958561291285  0.6735694878955016  0.5363715315781101   T   T   T
  0.9946402226901681  0.2437896644520133  0.1784250255367652   T   T   T
  0.4440574921592121  0.0539319764149215  0.4670837866645155   T   T   T
  0.4281815070713937  0.5370047978816218  0.7734394292425321   T   T   T
  0.3300221480662122  0.0585403989355132  0.7951021792168952   T   T   T
  0.4926446934484038  0.5633770390142191  0.4300314451131081   T   T   T
  0.9430237121381758  0.4414487582800777  0.3623679899797785   T   T   T
  0.0725509497677453 -0.0317133678905350  0.8445448629306876   T   T   T
 
  0.00000000E+00  0.00000000E+00  0.00000000E+00
  0.00000000E+00  0.00000000E+00  0.00000000E+00
  0.00000000E+00  0.00000000E+00  0.00000000E+00
  0.00000000E+00  0.00000000E+00  0.00000000E+00
  0.00000000E+00  0.00000000E+00  0.00000000E+00
  0.00000000E+00  0.00000000E+00  0.00000000E+00
  0.00000000E+00  0.00000000E+00  0.00000000E+00
  0.00000000E+00  0.00000000E+00  0.00000000E+00
  0.00000000E+00  0.00000000E+00  0.00000000E+00
  0.00000000E+00  0.00000000E+00  0.00000000E+00
  0.00000000E+00  0.00000000E+00  0.00000000E+00
  0.00000000E+00  0.00000000E+00  0.00000000E+00
  0.00000000E+00  0.00000000E+00  0.00000000E+00
  0.00000000E+00  0.00000000E+00  0.00000000E+00
  0.00000000E+00  0.00000000E+00  0.00000000E+00
  0.00000000E+00  0.00000000E+00  0.00000000E+00
  0.00000000E+00  0.00000000E+00  0.00000000E+00
  0.00000000E+00  0.00000000E+00  0.00000000E+00
  0.00000000E+00  0.00000000E+00  0.00000000E+00
  0.00000000E+00  0.00000000E+00  0.00000000E+00
  0.00000000E+00  0.00000000E+00  0.00000000E+00
  0.00000000E+00  0.00000000E+00  0.00000000E+00
  0.00000000E+00  0.00000000E+00  0.00000000E+00
  0.00000000E+00  0.00000000E+00  0.00000000E+00
  0.00000000E+00  0.00000000E+00  0.00000000E+00
  0.00000000E+00  0.00000000E+00  0.00000000E+00
  0.00000000E+00  0.00000000E+00  0.00000000E+00
  0.00000000E+00  0.00000000E+00  0.00000000E+00
  0.00000000E+00  0.00000000E+00  0.00000000E+00
  0.00000000E+00  0.00000000E+00  0.00000000E+00
  0.00000000E+00  0.00000000E+00  0.00000000E+00
  0.00000000E+00  0.00000000E+00  0.00000000E+00
  0.00000000E+00  0.00000000E+00  0.00000000E+00
  0.00000000E+00  0.00000000E+00  0.00000000E+00
  0.00000000E+00  0.00000000E+00  0.00000000E+00
