N    C    H    Fe   Cu   O    Li
   1.00000000000000     
  17.2698806846136996  -0.1244150870901910   1.3315699163398500
  -0.0679047757779686   7.8096621807480897  -1.1454913370952500
  -1.5490990209264299  -0.9706298922803870   7.6170720233160703
N    C    H    Fe   Cu   O    Li
12  20  40  2  2  4  1  
Direct
  0.4418922793473365  0.2804155490418217  0.7367461046077960  
  0.6411115819509059  0.6822561174083142  0.4621176073166564  
  0.4485651441544205  0.2714061644903380  0.1304644564327204  
  0.4352130455570836  0.8850004039382010  0.7264404577453332  
  0.9922583902663684  0.6453118175061223  0.8667080905196095  
  0.0405192839065435  0.3541923874262498  0.1809775333930335  
  0.0244028414706052  0.7120731001452586  0.2158155091003407  
  0.0122365680315429  0.3075735397553856  0.8139321808529532  
  0.2547192031020030  0.9530301197984424  0.1544348945491803  
  0.6932999819498096  0.0774661701361912  0.8633931425424045  
  0.8126660292627303  0.4309778937344748  0.2161917787021397  
  0.2344207430020860  0.5480318054339958  0.8588142533250163  
  0.4604380090905443  0.3759782012188030  0.6530266638822656  
  0.5827471610332734  0.6164675649786967  0.4847687945371975  
  0.4502644359290956  0.3791494662446963  0.2677807725290600  
  0.4399060782388905  0.7477592005258350  0.6230470048186674  
  0.9818163550315860  0.7370049910606848  0.7706099387728484  
  0.0423731072365347  0.2609312516934155  0.2765036982210866  
  0.0247117334162396  0.8547914703820010  0.3124408711869949  
  0.0150464822180509  0.2115431101249205  0.6715367993253287  
  0.3239672672738081  0.9841558297705860  0.0931663849185758  
  0.6159120973812012  0.0567590364185480  0.8214282945916510  
  0.8846787626268083  0.4723661093782139  0.1904886990278557  
  0.1556526507692472  0.5436147064741070  0.8699191121609664  
  0.2579222433471223  0.8988218129729602  0.3208199800704183  
  0.7449178805898566  0.0201205202871972  0.7277874387067480  
  0.7940856635245970  0.4492652106531571  0.3970805946986822  
  0.2593795102591991  0.5710211043590857  0.6927558023067913  
  0.1854437437617865  0.9816940573882206  0.0707494166211617  
  0.7292031901827738  0.1655194871787801  0.0447867456127431  
  0.7513780172176895  0.3614649960923574  0.0664674414228908  
  0.2886438738626702  0.5315797552919846  0.9904019589619728  
  0.2147103193089351  0.7891453682795987  0.3018132882264190  
  0.7723996874844337  0.1341928278300405  0.6974837772887806  
  0.7908803777056584  0.9453203668901700  0.7779574622801294  
  0.2450237969405792  0.0097182033546027  0.4291436405212055  
  0.7791371752069987  0.3194821240223940  0.4155112631521464  
  0.2830458085851683  0.7063997694820942  0.7143791908520520  
  0.3048389985213050  0.4804871830808947  0.6535920693085454  
  0.7443289948554305  0.5321622787840282  0.4207986410201160  
  0.1290546001040663  0.8577501372125973  0.5990197082876509  
  0.8645051107481407  0.0304706068107030  0.4116679745501532  
  0.7147064189960314  0.7952721483203635  0.1357241868612981  
  0.1960765818481801  0.1780279198602742  0.6890421818373796  
  0.6119789919416584  0.2095025656080681  0.4281374378334295  
  0.5079141543202669  0.7303363644771105  0.1469769047797514  
  0.2841224791089942  0.3476029124013010  0.3191420016658807  
  0.7383146254010511  0.6235577560149380  0.7657998037809592  
  0.2341673809363418  0.1592965396121840  0.7357974355684594  
  0.6950512368327394  0.7792612470591934  0.2112941083834970  
  0.8304368765574535  0.9635992777040006  0.3824155308796099  
  0.1267797849149044  0.8388017265065592  0.6877186953391919  
  0.7775033006086939  0.6210313842241849  0.8180082572770526  
  0.2406059562230188  0.3331481104330777  0.2949614481313961  
  0.4986495355937234  0.7475345395404441  0.0568928792105615  
  0.6226056047121058  0.1151912453930607  0.4042396913552848  
  0.1861398245408171  0.0366761152027248  0.9576787122940240  
  0.6882837253868110  0.1504582800191544  0.1368906777237810  
  0.7820584386560806  0.0974671821940864  0.0718093340097908  
  0.1325512907702940  0.9568069730020388  0.1239316450411084  
  0.7735646601273233  0.3781439461465950  0.9463299541429410  
  0.2694665982551243  0.5097640730522029  0.1100035807445093  
  0.3493025126372956  0.5303353563307784  0.9682248179538666  
  0.7001420864809467  0.4395691541042704  0.0883312136797344  
  0.3163222475666058  0.8573894221066752  0.3554356751174599  
  0.7115924335586356  0.9333870910315212  0.6069166079075287  
  0.8450214320693373  0.5090932943227485  0.4937628101066125  
  0.2093631404646055  0.5417225763554752  0.5876396610092197  
  0.3762650975957150  0.9647224667353920  0.1791729707900787  
  0.5951639360186186  0.9833537538999388  0.6825256759940358  
  0.9258566233239648  0.5204860833552438  0.3131511498899158  
  0.1178788585417071  0.5460797450405410  0.7481648840045577  
  0.4496747729148507  0.1210405228269726  0.8896064087772482  
  0.0181112786565375  0.5011184216241757  0.0227778442672850  
  0.4790302942881274  0.5279541206242050  0.5051487762660593  
  0.0281810409878836  0.1061815824468815  0.4236215867171902  
  0.3258988359522008  0.0323410479648805  0.9542971873293056  
  0.5699495690792182  0.1153115120238047  0.9335598453698118  
  0.9057621393199916  0.4587755226752955  0.0384950717587566  
  0.1297864113706560  0.5332315517853070  0.0108120604950573  
  0.9990216513594976  0.9070245264558204  0.6189518189397323  
