N    C    H    Pb   Pt   O    Li        
   1.00000000000000     
    15.0439871112280201    0.2810499320381180   -1.3986392990617900
     0.3564132496401985    7.3793804280916904    0.0572544993259100
    -2.5207161356159862    0.0780474689165134    7.2801389494741287
   N    C    H    Pb   Pt   O    Li
    12    20    40     2     2     4     1
Direct
  0.4624840060982132  0.2237415222589221  0.7656510872553077
  0.5453580849324788  0.7786100906684801  0.2384599620771226
  0.5389430611027328  0.2128509669410231  0.2325963925542912
  0.4647381303152155  0.7894886654457119  0.7671060505098958
  0.9463465362632253  0.7289292264525016  0.7909734330645746
  0.0631446269140917  0.2539375913217019  0.3107329257693434
  0.0486803295001306  0.6959095028535407  0.2303817044060383
  0.9408791465719257  0.2908582403342008  0.6848451820217649
  0.2687037691041775  0.0108405226295731  0.1905937127112431
  0.7335592604954273  0.0032918829234611  0.8078666950577411
  0.7580930168881215  0.5041279750352085  0.2146847137617149
  0.2409677053636687  0.5070210718885912  0.7927577290567573
  0.4791132494406575  0.3224895102375488  0.6642028785773871
  0.5257352280515344  0.6811455630752526  0.3369370323789688
  0.5230686925082803  0.3162315454845968  0.3347183092453733
  0.4801894076228234  0.6865681470582696  0.6642854273435695
  0.9599737305634117  0.7896436383712087  0.6629666960357571
  0.0343816056383802  0.1306474983749900  0.3637345224639744
  0.0248901470741495  0.7639989960810378  0.3443465357018978
  0.9617650954002129  0.1556780290019859  0.6259804091168976
  0.3517137763693295  0.0009771096354988  0.1644924584997120
  0.6517097747737914  0.9965316124081852  0.8341594107441840
  0.8414946660918571  0.5050856334803916  0.1944964603674391
  0.1567194846779219  0.5292688541628784  0.8095992955419015
  0.2727067490042596  0.0130241976061823  0.3844216798987783
  0.7311690681005116  0.0031584206686622  0.6158817222771216
  0.7574506453687313  0.5071637183051900  0.4029523037717855
  0.2433177369773928  0.4914478016153951  0.6057718064661067
  0.1776185211303931  0.0208233712039588  0.0336636138043655
  0.8256189602649645  0.0040880795061673  0.9614539843633186
  0.6683863134578373  0.5015384289558370  0.0558171647177903
  0.3312177728118844  0.5095993712965402  0.9515089590887946
  0.2394987348487707  0.8933215828230411  0.4095926690911789
  0.7672173378411881  0.1201903304210623  0.5948610580829798
  0.7695447167869697  0.8782347381713905  0.5979980780143105
  0.2328383745186478  0.1353276238956864  0.4033415346396207
  0.7229942237132180  0.3882376603953376  0.4247941341120315
  0.2784416353906837  0.6076174077512896  0.5793836807457199
  0.2849757563207204  0.3661174604407835  0.6009236331454461
  0.7164017724237504  0.6303719302817831  0.4154314442951360
  0.1778102871330736  0.8430709539781684  0.6438458488927647
  0.8166243427663966  0.1686782245384873  0.3304672495260356
  0.8187865080937835  0.8319479681124856  0.3435803966336925
  0.1755147182257262  0.1811527454487961  0.6605340947955096
  0.6783331707890983  0.3484756807052450  0.6821556572098987
  0.3254911770245686  0.6619560265117383  0.3311606760363996
  0.3255719756602807  0.3437821428459308  0.3305456685873533
  0.6762896097739202  0.6700250466710463  0.6712603772535239
  0.2174838099265607  0.1527331651449196  0.7528646507868717
  0.7723054677423165  0.8538559369011935  0.2569785759754367
  0.7726688796585940  0.1471302726492777  0.2437873891793140
  0.2282140769344684  0.8576609035814775  0.7169021541759688
  0.7236337472693666  0.6521999706916634  0.7566696976488759
  0.2779606763431886  0.3580050787926817  0.2451509737451434
  0.2783708048225399  0.6558995757128826  0.2449678716533432
  0.7275057657399716  0.3533453422139136  0.7631696137809412
  0.1269818264925361  0.1421991862272539  0.0169118097276507
  0.8607291732488971  0.8769554944431233  0.0370473178076028
  0.8605873716387354  0.1318392251393328 -0.0058096335350759
  0.1701314876793907  0.9330933585954700  0.9128111764993889
  0.6365603817985848  0.6265145988063819  0.9739271141755099
  0.3725906114260686  0.3808464301819880  0.0064994025327467
  0.3608175642752207  0.6393936567753139  0.0012422059511131
  0.6312480991854201  0.3769458576592725  0.0277527967536075
  0.3488774653534291  0.0090859403836795  0.4878057565154806
  0.6554925484198790  0.0107887548856454  0.5104583739145774
  0.8324748627785780  0.5035035504652031  0.5101046845060881
  0.1688032641575608  0.4910185069407687  0.4968668329835112
  0.4192711498297200  0.9943703651983433  0.2956350965264564
  0.5849380823541772  0.9949779757243146  0.7037833238050248
  0.9073739229029150  0.5042996241363462  0.3269386934168775
  0.0920165647952057  0.5167784705020045  0.6770351107164592
  0.5011103633970569 -0.0001765085456391  0.0005289221150561
 -0.0052542318864493  0.4314003723185934  0.0023240196376488
  0.5017587359399791  0.5014312197291231  0.4996027766259521
  0.9930739988763512  0.9498407230683783  0.4970068425332816
  0.3518186096487981  0.0047360904955295  0.9953445296698177
  0.6510785998721053  0.9929724763118704  0.0021553837546799
  0.8448462311786620  0.5047676357318709  0.0320516219635910
  0.1494512494945524  0.5617673340506740  0.9660410966241737
  0.0796453609920119  0.7660667107132000  0.0158624234631347
 
             NaN             NaN             NaN
             NaN             NaN             NaN
             NaN             NaN             NaN
             NaN             NaN             NaN
             NaN             NaN             NaN
             NaN             NaN             NaN
             NaN             NaN             NaN
             NaN             NaN             NaN
             NaN             NaN             NaN
             NaN             NaN             NaN
             NaN             NaN             NaN
             NaN             NaN             NaN
             NaN             NaN             NaN
             NaN             NaN             NaN
             NaN             NaN             NaN
             NaN             NaN             NaN
             NaN             NaN             NaN
             NaN             NaN             NaN
             NaN             NaN             NaN
             NaN             NaN             NaN
             NaN             NaN             NaN
             NaN             NaN             NaN
             NaN             NaN             NaN
             NaN             NaN             NaN
             NaN             NaN             NaN
             NaN             NaN             NaN
             NaN             NaN             NaN
             NaN             NaN             NaN
             NaN             NaN             NaN
             NaN             NaN             NaN
             NaN             NaN             NaN
             NaN             NaN             NaN
             NaN             NaN             NaN
             NaN             NaN             NaN
             NaN             NaN             NaN
             NaN             NaN             NaN
             NaN             NaN             NaN
             NaN             NaN             NaN
             NaN             NaN             NaN
             NaN             NaN             NaN
             NaN             NaN             NaN
             NaN             NaN             NaN
             NaN             NaN             NaN
             NaN             NaN             NaN
             NaN             NaN             NaN
             NaN             NaN             NaN
             NaN             NaN             NaN
             NaN             NaN             NaN
             NaN             NaN             NaN
             NaN             NaN             NaN
             NaN             NaN             NaN
             NaN             NaN             NaN
             NaN             NaN             NaN
             NaN             NaN             NaN
             NaN             NaN             NaN
             NaN             NaN             NaN
             NaN             NaN             NaN
             NaN             NaN             NaN
             NaN             NaN             NaN
             NaN             NaN             NaN
             NaN             NaN             NaN
             NaN             NaN             NaN
             NaN             NaN             NaN
             NaN             NaN             NaN
             NaN             NaN             NaN
             NaN             NaN             NaN
             NaN             NaN             NaN
             NaN             NaN             NaN
             NaN             NaN             NaN
             NaN             NaN             NaN
             NaN             NaN             NaN
             NaN             NaN             NaN
             NaN             NaN             NaN
             NaN             NaN             NaN
             NaN             NaN             NaN
             NaN             NaN             NaN
             NaN             NaN             NaN
             NaN             NaN             NaN
             NaN             NaN             NaN
             NaN             NaN             NaN
             NaN             NaN             NaN
