N    C    H    Cd   Ni   O    Li        
   1.00000000000000     
    17.7510262238341525   -0.7500659350142530    1.7172616433382499
    -0.1384854384314624    7.5364119554476714   -0.0699599671834903
    -1.6376731375819584    0.1304797398521120    7.4710985249482196
   N    C    H    Cd   Ni   O    Li
    12    20    40     2     2     4     1
Direct
  0.4913625500807204  0.2123105169073783  0.7679134103133851
  0.5122610138422150  0.7793051398826971  0.2069181746214101
  0.5186646783859803  0.2201651453619891  0.2143234168034937
  0.4834634166082314  0.7743703706407032  0.7619309586917601
  0.9861019119982420  0.7345479667978833  0.7141665597587179
  0.9933043174695136  0.3116104943930991  0.1577616344944688
  0.0242396526684633  0.7619979584927831  0.1570299810370668
  0.9752824960974282  0.2946954597065551  0.7086836776930282
  0.2812014412488343  1.0043136847738239  0.2184663123394062
  0.7297514657859280  0.0058922701065271  0.8104614141945805
  0.7573634881049081  0.5422497783444601  0.0996016191673774
  0.2435780043435307  0.4722155299502284  0.9183818267986581
  0.4954175724839886  0.3224415475672029  0.6592554255725499
  0.5073746707991779  0.6704272008697560  0.3165679820871807
  0.5131129405780480  0.3270012466741372  0.3217987232196761
  0.4888591094105524  0.6670115075755297  0.6549154138620906
  0.9883533002765322  0.8438861902137840  0.6041520496319162
  0.9934644041890368  0.1990549401429534  0.2649886750244597
  0.0100514391281152  0.8597020000953466  0.2656117619702906
  0.9796242677323629  0.1877663701862145  0.6008600407052486
  0.3513423511147771  0.9950472417122999  0.1770125283109147
  0.6534695601230179  0.9975224347726054  0.8240584984311774
  0.8335216973000530  0.5462813758298956  0.0901687606688779
  0.1671130018073386  0.4553609721930593  0.8831459286124183
  0.2693945820824104  1.0059864331688753  0.4030201690978559
  0.7566073293353001  0.9784691617811494  0.6405423640771463
  0.7306350851277683  0.5643697451540524  0.2715849855155056
  0.2898171927772294  0.3822806681834863  0.8036215560769455
  0.2144220275545224 -0.0093331477774353  0.0934325885800663
  0.7837256246300244  0.0308186042119015  0.9505004991409193
  0.7045928733988607  0.5194322073958159  0.9557185883440014
  0.2801529020197172  0.5759484955703835  0.0496952829203187
  0.2323480003607071  0.8902572744923236  0.4313883447232764
  0.7997587505073178  0.0832957644142500  0.6178394671634087
  0.7823611899635269  0.8498631499947595  0.6405844834868846
  0.2414443110537928  0.1263474170414407  0.4328105914538228
  0.6932804923301050  0.4489389676852730  0.2989063944965704
  0.3300237834432699  0.4810622369627009  0.7546264732099761
  0.3208824335651040  0.2781834988719804  0.8770939059292181
  0.6986263820460443  0.6843612213885686  0.2691766131341707
  0.2010778591667444  0.7646853255319652  0.6799993653650624
  0.8206162238248061  0.2311005071144926  0.3421629282101498
  0.8583115256873084  0.8872058317681162  0.3764139333336050
  0.1241210967427522  0.0842198005128878  0.6380347946303265
  0.7709149535256133  0.3785080380599278  0.5987380258512974
  0.2247946785547527  0.5557699305207381  0.4508459922258179
  0.3651017912447311  0.3922061275584303  0.4148547467376671
  0.6312125204198850  0.6114402164167867  0.5637404215859229
  0.1580184391888369  0.0624891069686193  0.7010271521935036
  0.8233246769918542  0.8947473060862173  0.3117351359833378
  0.6626932228982617  0.0787581583364669  0.2681807595198444
  0.2298873751358748  0.7980861715038577  0.7538225582052872
  0.6720293737747729  0.6371699410102452  0.5957122047549033
  0.3278998371766669  0.3902960679973035  0.3562572992976665
  0.1864848255421754  0.5257861431663634  0.4060400288332917
  0.8013993334226456  0.4080476506361343  0.6708300067357209
  0.2291205958546831  0.0206687520959707 -0.0387082311404787
  0.7672457754505323  0.0545424837689387  0.0780339250814605
  0.8428035656620241  0.0329304317751896  0.9300320888958570
  0.1740578803991136  0.0884238288965637  0.1243252238950428
  0.6451368371980307  0.5196795932557271  0.9736635360257136
  0.3408774612943988  0.5998640804064072  0.0568291040037758
  0.2477290673849128  0.6387618250479985  0.1389566650250949
  0.7237151692685609  0.4969027260050362  0.8293147992505573
  0.3236217205779512  1.0021041447785199  0.4871190482987001
  0.7087525494883535  0.9829843811184211  0.5370214353802342
  0.7791141517933980  0.5755544207307572  0.3743922352329694
  0.2528209733867096  0.3242515336784820  0.6916663354400509
  0.3947880094466559  0.9860667394768252  0.2913676122198040
  0.6178706020398814  0.9820206009742217  0.6962359260674083
  0.8692024627651098  0.5589893559916062  0.2180839503806839
  0.1445289947160104  0.3645009739125821  0.7763553446628271
  0.4942891164563474 -0.0041507326945331  0.9867453690002002
  0.9882750444818069  0.5091146428908599  0.9236299175714786
  0.5009244451173941  0.4968612671451906  0.4883404644441581
  0.9915198221813899  0.0206929453181563  0.4332293667100371
  0.3671962946171282 -0.0096020583858567  0.0188361601379022
  0.6284448793963630  0.0066429572646886  0.9690302864190843
  0.8603807706649391  0.5352934378817396  0.9461999760135432
  0.1236637759297593  0.5416332561029643  0.9676035885723556
  0.1306283322051819  0.7727407541154498  0.0703836858528388
 
             NaN             NaN             NaN
             NaN             NaN             NaN
             NaN             NaN             NaN
             NaN             NaN             NaN
             NaN             NaN             NaN
             NaN             NaN             NaN
             NaN             NaN             NaN
             NaN             NaN             NaN
             NaN             NaN             NaN
             NaN             NaN             NaN
             NaN             NaN             NaN
             NaN             NaN             NaN
             NaN             NaN             NaN
             NaN             NaN             NaN
             NaN             NaN             NaN
             NaN             NaN             NaN
             NaN             NaN             NaN
             NaN             NaN             NaN
             NaN             NaN             NaN
             NaN             NaN             NaN
             NaN             NaN             NaN
             NaN             NaN             NaN
             NaN             NaN             NaN
             NaN             NaN             NaN
             NaN             NaN             NaN
             NaN             NaN             NaN
             NaN             NaN             NaN
             NaN             NaN             NaN
             NaN             NaN             NaN
             NaN             NaN             NaN
             NaN             NaN             NaN
             NaN             NaN             NaN
             NaN             NaN             NaN
             NaN             NaN             NaN
             NaN             NaN             NaN
             NaN             NaN             NaN
             NaN             NaN             NaN
             NaN             NaN             NaN
             NaN             NaN             NaN
             NaN             NaN             NaN
             NaN             NaN             NaN
             NaN             NaN             NaN
             NaN             NaN             NaN
             NaN             NaN             NaN
             NaN             NaN             NaN
             NaN             NaN             NaN
             NaN             NaN             NaN
             NaN             NaN             NaN
             NaN             NaN             NaN
             NaN             NaN             NaN
             NaN             NaN             NaN
             NaN             NaN             NaN
             NaN             NaN             NaN
             NaN             NaN             NaN
             NaN             NaN             NaN
             NaN             NaN             NaN
             NaN             NaN             NaN
             NaN             NaN             NaN
             NaN             NaN             NaN
             NaN             NaN             NaN
             NaN             NaN             NaN
             NaN             NaN             NaN
             NaN             NaN             NaN
             NaN             NaN             NaN
             NaN             NaN             NaN
             NaN             NaN             NaN
             NaN             NaN             NaN
             NaN             NaN             NaN
             NaN             NaN             NaN
             NaN             NaN             NaN
             NaN             NaN             NaN
             NaN             NaN             NaN
             NaN             NaN             NaN
             NaN             NaN             NaN
             NaN             NaN             NaN
             NaN             NaN             NaN
             NaN             NaN             NaN
             NaN             NaN             NaN
             NaN             NaN             NaN
             NaN             NaN             NaN
             NaN             NaN             NaN
