H    Li   C    N    O    Zn   Ni        
   1.00000000000000     
     7.3332979767060475   -1.0113462238929192    0.7359646224937252
    -0.3012666634037262    7.2320028027123691    0.0447596484097807
     0.3254829940183434    0.0152915819216010    6.9204441333607765
   H    Li   C    N    O    Zn   Ni
    14     1    10     6     2     1     1
Selective dynamics
Direct
  0.5916635361921581  0.9581794822272905  0.6665159547036107   T   T   T
  0.2123958133367079 -0.0121987325299544  0.3094976189261762   T   T   T
  0.3714551909073294  0.2008136695499922  0.2542069281677569   T   T   T
  0.2282994616379689  0.1636229198365182  0.4884879073313677   T   T   T
  0.6248250877322751  0.0017399291136122  0.1866070724023949   T   T   T
  0.4660327268872190  0.7912816676864689  0.2611056949852327   T   T   T
  0.6617821965134544  0.8639138049045113  0.3851008651284399   T   T   T
  0.3524976004679942  0.5304427161034523  0.4918911173341536   T   T   T
  0.5365262590543194  0.3805812017740438  0.9578379184341882   T   T   T
  0.6451479379768438  0.6299919686762857  0.9383983688433783   T   T   T
  0.7226897126746405  0.4652688177095188  0.7685281946564883   T   T   T
  0.3349396372086732  0.7227856870450853  0.9207867970818354   T   T   T
  0.2352147318554078  0.4778199310249760  0.9591727753009850   T   T   T
  0.2013185827545469  0.6045999293982044  0.7502289776546370   T   T   T
  0.7209375380152873  0.4549337413795128  0.1760372277283404   T   T   T
  0.9302050048115693  0.8206411187124346  0.0809617996562775   T   T   T
  0.9442829625138096  0.2041359757418217  0.7332972233870922   T   T   T
  0.9938030244634989  0.8562095168561152  0.7078692468422875   T   T   T
  0.9683285688547874  0.1969516981619651  0.0969407245827542   T   T   T
  0.4801471497261809  0.0337191279018468  0.6372906325520081   T   T   T
  0.3071080019532619  0.0971072172836292  0.3722743468090981   T   T   T
  0.5553138346690192  0.9125621846283765  0.3145743596392119   T   T   T
  0.4776022010262224  0.5091534950214643  0.5505082445971553   T   T   T
  0.6021935179343079  0.5019795557713945  0.8588039073875327   T   T   T
  0.2997890299552457  0.5887584824920118  0.8490647660940241   T   T   T
  0.9328157729380562  0.6908914031535671  0.1859161018502191   T   T   T
  0.9622113746390635  0.3293963214803483  0.6178378180253107   T   T   T
  0.9725700007235659  0.7384834544408759  0.5918179129373042   T   T   T
  0.9264447367772616  0.3095319393731699  0.2112714243295720   T   T   T
  0.4469279169863812  0.0152192910350981  0.4501772266646826   T   T   T
  0.4659323903554519  0.5375664358561979  0.7410508715630825   T   T   T
  0.3997137409073176  0.1211678807631060  0.7652442169183750   T   T   T
  0.6120401730140836  0.4650153758731853  0.4390630903437191   T   T   T
  0.9482598826719399  0.5206042312749655  0.4204984812053174   T   T   T
  0.9659147018641763  0.0201725602789228  0.9076991859359934   T   T   T
 
  0.00000000E+00  0.00000000E+00  0.00000000E+00
  0.00000000E+00  0.00000000E+00  0.00000000E+00
  0.00000000E+00  0.00000000E+00  0.00000000E+00
  0.00000000E+00  0.00000000E+00  0.00000000E+00
  0.00000000E+00  0.00000000E+00  0.00000000E+00
  0.00000000E+00  0.00000000E+00  0.00000000E+00
  0.00000000E+00  0.00000000E+00  0.00000000E+00
  0.00000000E+00  0.00000000E+00  0.00000000E+00
  0.00000000E+00  0.00000000E+00  0.00000000E+00
  0.00000000E+00  0.00000000E+00  0.00000000E+00
  0.00000000E+00  0.00000000E+00  0.00000000E+00
  0.00000000E+00  0.00000000E+00  0.00000000E+00
  0.00000000E+00  0.00000000E+00  0.00000000E+00
  0.00000000E+00  0.00000000E+00  0.00000000E+00
  0.00000000E+00  0.00000000E+00  0.00000000E+00
  0.00000000E+00  0.00000000E+00  0.00000000E+00
  0.00000000E+00  0.00000000E+00  0.00000000E+00
  0.00000000E+00  0.00000000E+00  0.00000000E+00
  0.00000000E+00  0.00000000E+00  0.00000000E+00
  0.00000000E+00  0.00000000E+00  0.00000000E+00
  0.00000000E+00  0.00000000E+00  0.00000000E+00
  0.00000000E+00  0.00000000E+00  0.00000000E+00
  0.00000000E+00  0.00000000E+00  0.00000000E+00
  0.00000000E+00  0.00000000E+00  0.00000000E+00
  0.00000000E+00  0.00000000E+00  0.00000000E+00
  0.00000000E+00  0.00000000E+00  0.00000000E+00
  0.00000000E+00  0.00000000E+00  0.00000000E+00
  0.00000000E+00  0.00000000E+00  0.00000000E+00
  0.00000000E+00  0.00000000E+00  0.00000000E+00
  0.00000000E+00  0.00000000E+00  0.00000000E+00
  0.00000000E+00  0.00000000E+00  0.00000000E+00
  0.00000000E+00  0.00000000E+00  0.00000000E+00
  0.00000000E+00  0.00000000E+00  0.00000000E+00
  0.00000000E+00  0.00000000E+00  0.00000000E+00
  0.00000000E+00  0.00000000E+00  0.00000000E+00
