H    Li   C    N    O    Fe   Cu        
   1.00000000000000     
     7.4181766872982591   -0.9524430228801621    0.7707142777876551
    -0.2642232536196940    7.0882816085560636   -0.0002757462430145
     0.3696731831261125   -0.0219383402146114    6.7314928621378014
   H    Li   C    N    O    Fe   Cu
    14     1    10     6     2     1     1
Selective dynamics
Direct
  0.5830303886543169  0.9629758924553093  0.6803782236287539   T   T   T
  0.2043442849043159  0.0036494930158341  0.3272468614965479   T   T   T
  0.3560178114506657  0.2224498763949333  0.2755973830010945   T   T   T
  0.2156039668942643  0.1767345266714284  0.5189076441622782   T   T   T
  0.6130931489632405  0.0342975608723165  0.1892854120072931   T   T   T
  0.4669222925185451  0.8139580627704875  0.2548053858151217   T   T   T
  0.6603303469622266  0.8881851060599552  0.3807384548322295   T   T   T
  0.3899257372147872  0.5165110951563440  0.4621805888542684   T   T   T
  0.5458451040021084  0.3875310354386494  0.9570565153190671   T   T   T
  0.6114849515647337  0.6466789775806063  0.9663369645079899   T   T   T
  0.7405381376369324  0.5116746246354996  0.7893632423342418   T   T   T
  0.3165967702542759  0.7222662088322368  0.8900216619552190   T   T   T
  0.2451891342486520  0.4700505418297720  0.9411901169854835   T   T   T
  0.2101137380902026  0.5741596867737752  0.7135838208836337   T   T   T
  0.7634717543349951  0.4460539349237565  0.1365418247423933   T   T   T
  0.9143563070190239  0.8055070878803219  0.1062586894826920   T   T   T
  0.8866192341170474  0.1915222524177900  0.7423010038255289   T   T   T
  0.0089264061089440  0.8348583467945766  0.7008032012297130   T   T   T
  0.0061907885411580  0.2082784260903023  0.1065692520797824   T   T   T
  0.4698025301143972  0.0397143746484248  0.6584718828042434   T   T   T
  0.2957391324628758  0.1140535236940638  0.3942701082677209   T   T   T
  0.5501004221358650  0.9363602841640030  0.3164981536083802   T   T   T
  0.5099838132771279  0.5090202039665539  0.5341961431573532   T   T   T
  0.6044786410558540  0.5211955412403538  0.8694832423507681   T   T   T
  0.3026156893041565  0.5796144517576579  0.8240264323446288   T   T   T
  0.9373287413208179  0.6877958381943785  0.2194596751189300   T   T   T
  0.9103596517617106  0.3192902261204520  0.6241281823144293   T   T   T
  0.9659134620244277  0.7049394210751508  0.5974749978676916   T   T   T
  0.9652745413415926  0.3199806307579747  0.2310158420556506   T   T   T
  0.4376970059269500  0.0304341340506531  0.4659673186465256   T   T   T
  0.4816753754436809  0.5417534123465935  0.7292372113058423   T   T   T
  0.3884316185196451  0.1219874948378528  0.7981714457787069   T   T   T
  0.6513989854829713  0.4702698843894849  0.4214079899678486   T   T   T
  0.9194583697108033  0.5043895016900186  0.4255917519267223   T   T   T
  0.9604588791647283  0.0121509907643828  0.9126650491349702   T   T   T
 
  0.00000000E+00  0.00000000E+00  0.00000000E+00
  0.00000000E+00  0.00000000E+00  0.00000000E+00
  0.00000000E+00  0.00000000E+00  0.00000000E+00
  0.00000000E+00  0.00000000E+00  0.00000000E+00
  0.00000000E+00  0.00000000E+00  0.00000000E+00
  0.00000000E+00  0.00000000E+00  0.00000000E+00
  0.00000000E+00  0.00000000E+00  0.00000000E+00
  0.00000000E+00  0.00000000E+00  0.00000000E+00
  0.00000000E+00  0.00000000E+00  0.00000000E+00
  0.00000000E+00  0.00000000E+00  0.00000000E+00
  0.00000000E+00  0.00000000E+00  0.00000000E+00
  0.00000000E+00  0.00000000E+00  0.00000000E+00
  0.00000000E+00  0.00000000E+00  0.00000000E+00
  0.00000000E+00  0.00000000E+00  0.00000000E+00
  0.00000000E+00  0.00000000E+00  0.00000000E+00
  0.00000000E+00  0.00000000E+00  0.00000000E+00
  0.00000000E+00  0.00000000E+00  0.00000000E+00
  0.00000000E+00  0.00000000E+00  0.00000000E+00
  0.00000000E+00  0.00000000E+00  0.00000000E+00
  0.00000000E+00  0.00000000E+00  0.00000000E+00
  0.00000000E+00  0.00000000E+00  0.00000000E+00
  0.00000000E+00  0.00000000E+00  0.00000000E+00
  0.00000000E+00  0.00000000E+00  0.00000000E+00
  0.00000000E+00  0.00000000E+00  0.00000000E+00
  0.00000000E+00  0.00000000E+00  0.00000000E+00
  0.00000000E+00  0.00000000E+00  0.00000000E+00
  0.00000000E+00  0.00000000E+00  0.00000000E+00
  0.00000000E+00  0.00000000E+00  0.00000000E+00
  0.00000000E+00  0.00000000E+00  0.00000000E+00
  0.00000000E+00  0.00000000E+00  0.00000000E+00
  0.00000000E+00  0.00000000E+00  0.00000000E+00
  0.00000000E+00  0.00000000E+00  0.00000000E+00
  0.00000000E+00  0.00000000E+00  0.00000000E+00
  0.00000000E+00  0.00000000E+00  0.00000000E+00
  0.00000000E+00  0.00000000E+00  0.00000000E+00
