N    C    H    Fe   Cu   O    Li        
   1.00000000000000     
    19.1117086536043992    0.6768092518893600    2.0630543030899400
     1.0352159643521368    7.5371669399792669   -0.4576526453833540
    -1.1260428202887383   -1.0009834335897587    7.6313075224489628
   N    C    H    Fe   Cu   O    Li
    12    20    40     2     2     4     1
Direct
  0.4798621607996866  0.2545475905738536  0.8037125715655004
  0.5879505449938216  0.6868221086594359  0.3350111571622483
  0.4712418706296501  0.2307409289369630  0.2117654812651367
  0.4691454855735486  0.8517150006358707  0.8314287062956267
  0.0064693028217485  0.5648336790151862  0.8124794409668972
  0.0161647441096811  0.2247771821104008  0.1015811988923757
 -0.0081459726049316  0.6016522723618289  0.1477521465830860
  0.9937256220244886  0.2061620627477789  0.7486997179403726
  0.2648215919679572  0.0764631383647720  0.1478477101411867
  0.7027292260822185  0.0098586905890728  0.9214430697239200
  0.7757618650876913  0.4561926343096763  0.1134075570720554
  0.2652451572529120  0.5535076920958719  0.8642874354214503
  0.4986296095358152  0.3402481265316765  0.7088819044099627
  0.5563887215323280  0.6148235017063186  0.4187195622838902
  0.4682273362269462  0.3425330394268675  0.3417870874133303
  0.4663642885666867  0.7228279029661202  0.7195244335602126
  0.0204041488085572  0.6894335369991419  0.7609305444992682
  0.0198558820676113  0.1309718743989070  0.2065392458886784
 -0.0044035901677531  0.7393614567133399  0.2469655865321331
  0.9974474084007838  0.1093037402288429  0.6085013634556271
  0.3346431212759101  0.0883234193057720  0.1369050176248873
  0.6318570640680599  0.0425686356553561  0.8836885580928958
  0.8478972118442927  0.4217863480380071  0.1056526915574916
  0.1936160049221082  0.6195707649930798  0.8679060092392691
  0.2367290755349929  0.0513098993913048  0.3116023773255259
  0.7532875739229723  0.0206605866703796  0.7896251346702814
  0.7418334880299809  0.4321072261994371  0.2706859563833208
  0.2944687946836740  0.4231537139559902  0.7088743255819295
  0.2194424616931192  0.0943960544698211  0.0119438297528299
  0.7265384929002365 -0.0312531200099283  0.0778636104570527
  0.7347281279511624  0.5045677189762319  0.9795254011333849
  0.3099104365406957  0.6092717877559740  0.9960230810341515
  0.2109742785414283  0.9298829499570516  0.2858736617228017
  0.7772663420064361  0.1443613710398023  0.8287498741228042
  0.7947281319870173  0.9015213542434227  0.7745141986677540
  0.1973212913316269  0.1692491439948140  0.3641193838828486
  0.7219754273079921  0.3017220780550561  0.2431182138114037
  0.3302912253751822  0.4849059390943803  0.6418128235624474
  0.3239947825594772  0.3022359133825536  0.7492472186082767
  0.6970243884803717  0.5413617469530286  0.3060911822759085
  0.1340780606717881  0.7078204240910846  0.4725438488211512
  0.8604306394792358  0.0817831268252401  0.4494354056170936
  0.8455712214452432  0.7430507071937030  0.4310243386740289
  0.1319612347317354  0.1817936348091967  0.6533085331185274
  0.6388365958436302  0.3175588856405334  0.5315312509272876
  0.3891571006200992  0.7677526154003752  0.4179055009421450
  0.3041566446920179  0.4460856581901823  0.3234633972846453
  0.6692407009141809  0.7065014947593868  0.5871822035667158
  0.1711961846066452  0.1682887773385879  0.6670858432316265
  0.8196239378706929  0.7151631793767841  0.4853886321303677
  0.8226023377620826  0.0973634701898987  0.4192546201942825
  0.1721473425326950  0.6972453208923441  0.4479481705537456
  0.7007713952955055  0.7005159842658503  0.6479366558922752
  0.2654565635146089  0.4655942533593974  0.3034582520445051
  0.3542430419832225  0.7642308946937545  0.3711239911717703
  0.6757159241761453  0.2679291151052117  0.5387781031937506
  0.2380470346414424  0.1179976720616347  0.8925050811020711
  0.6877854772543484 -0.0428312186910521  0.1707837267027698
  0.7830897376286652 -0.0581228601674227  0.0984132997629299
  0.1681368125218916  0.0592619253842783  0.0160435204792538
  0.6780546984774884  0.5336889193419976  0.9981200984490887
  0.3652606959910368  0.5502304427583294 -0.0143447737338881
  0.2875376584216580  0.7071294741093453  0.1088829178561236
  0.7608851774305251  0.5157426385061097  0.8622539855779797
  0.2798155579918012  1.0370326233654072  0.4069042603079331
  0.7258234276690356  1.0220011202173840  0.6635592624168946
  0.7804267801403497  0.4333473049180029  0.3783280759370596
  0.2511214575292330  0.3863366340103936  0.6200295834878656
  0.3658740428586262  0.0757167822000003  0.2568784345858828
  0.6189640531128122  0.0697333032792174  0.7515841769284284
  0.8744107342831272  0.3895342623258783  0.2258339703280344
  0.1650294229590173  0.5576913128111345  0.7508775938009917
  0.4747592655008211  0.0953995068833295  0.9672543525721051
 -0.0107267716270434  0.4006910951451153  0.9528997957605508
  0.4960310914257489  0.5047568292615735  0.5480514307803045
  0.0057021854188478 -0.0187483688992525  0.3687360027331751
  0.3601537899070458  0.1134593824610415  0.9997953886213207
  0.5865802170075399  0.0410949940088060  0.9937708825349751
  0.8806562221274057  0.4280479441605520  0.9707541345224494
  0.1643120464185575  0.7374955992429469  0.9892998324149419
  0.0416923754208868  0.9295243666343979  0.9135592321310737
 
             NaN             NaN             NaN
             NaN             NaN             NaN
             NaN             NaN             NaN
             NaN             NaN             NaN
             NaN             NaN             NaN
             NaN             NaN             NaN
             NaN             NaN             NaN
             NaN             NaN             NaN
             NaN             NaN             NaN
             NaN             NaN             NaN
             NaN             NaN             NaN
             NaN             NaN             NaN
             NaN             NaN             NaN
             NaN             NaN             NaN
             NaN             NaN             NaN
             NaN             NaN             NaN
             NaN             NaN             NaN
             NaN             NaN             NaN
             NaN             NaN             NaN
             NaN             NaN             NaN
             NaN             NaN             NaN
             NaN             NaN             NaN
             NaN             NaN             NaN
             NaN             NaN             NaN
             NaN             NaN             NaN
             NaN             NaN             NaN
             NaN             NaN             NaN
             NaN             NaN             NaN
             NaN             NaN             NaN
             NaN             NaN             NaN
             NaN             NaN             NaN
             NaN             NaN             NaN
             NaN             NaN             NaN
             NaN             NaN             NaN
             NaN             NaN             NaN
             NaN             NaN             NaN
             NaN             NaN             NaN
             NaN             NaN             NaN
             NaN             NaN             NaN
             NaN             NaN             NaN
             NaN             NaN             NaN
             NaN             NaN             NaN
             NaN             NaN             NaN
             NaN             NaN             NaN
             NaN             NaN             NaN
             NaN             NaN             NaN
             NaN             NaN             NaN
             NaN             NaN             NaN
             NaN             NaN             NaN
             NaN             NaN             NaN
             NaN             NaN             NaN
             NaN             NaN             NaN
             NaN             NaN             NaN
             NaN             NaN             NaN
             NaN             NaN             NaN
             NaN             NaN             NaN
             NaN             NaN             NaN
             NaN             NaN             NaN
             NaN             NaN             NaN
             NaN             NaN             NaN
             NaN             NaN             NaN
             NaN             NaN             NaN
             NaN             NaN             NaN
             NaN             NaN             NaN
             NaN             NaN             NaN
             NaN             NaN             NaN
             NaN             NaN             NaN
             NaN             NaN             NaN
             NaN             NaN             NaN
             NaN             NaN             NaN
             NaN             NaN             NaN
             NaN             NaN             NaN
             NaN             NaN             NaN
             NaN             NaN             NaN
             NaN             NaN             NaN
             NaN             NaN             NaN
             NaN             NaN             NaN
             NaN             NaN             NaN
             NaN             NaN             NaN
             NaN             NaN             NaN
             NaN             NaN             NaN
