N    C    H    Ag   Be   O    Li        
   1.00000000000000     
    20.0284515790508451   -0.0819763723080282    0.9463307876574020
     0.0492121734313263    8.1606530519377500    0.9570536202811710
    -1.3521808489976404    0.9819845490030926    6.8130162482747014
   N    C    H    Ag   Be   O    Li
    12    20    40     2     2     4     1
Direct
  0.4455450040064785  0.1768234906237205  0.7515042782281398
  0.4360723187119283  0.7256830969593809  0.1694984996738089
  0.6298501411141335  0.3893266797004177  0.5050615684833277
  0.5257573616564930  0.7613251430228418  0.7908883138132904
 -0.0176551918691885  0.6248147218381841  0.7777421283907893
  0.9431418055795191  0.1750016955855519  0.1430934905455257
  0.0960514197756981  0.7765902477903504  0.3086820685226008
  1.0360963944922563  0.2060451199624552  0.7429463649650324
  0.2805929433929477  0.0502818222492441  0.2905181998304206
  0.7112794595310598  0.9778099853090499  0.7179329574217395
  0.7858834060388781  0.5082168473468379  0.2498393199637853
  0.2273600104264573  0.5181187315876096  0.7462633755421915
  0.4588828967771111  0.3140513555772769  0.6748178450670972
  0.4542465091176501  0.6297047375071382  0.3235745361112089
  0.5761418666543928  0.4353648376108194  0.5227158111144588
  0.5133159795307795  0.6539983178749555  0.7096431726586891
 -0.0143446308280989  0.7600571849726004  0.6748662132263479
 -0.0409919904955352  0.0737442348377252  0.2945946311845858
  1.0700509714621109  0.8544898628142705  0.3985253199305151
  1.0321997058640711  0.1023091907712742  0.6539481850453094
  0.3107857833319809  0.0966089364797011  0.1190046592872878
  0.6717926387475178  0.9745555133958723  0.8709264929306202
  0.8427285822486019  0.5391832447377060  0.1487111081720024
  0.1695226612359040  0.4984300850162124  0.8291023041589419
  0.3225309071692501 -0.0258933936047664  0.4817869774452778
  0.6769733354424294  1.0107160779787296  0.5110600938412166
  0.7976478384307397  0.4199538294806361  0.4631176780162797
  0.2332715036666046  0.4452071173782965  0.5785021855582315
  0.2131887843758506  0.0685974041972073  0.2810045754232731
  0.7776783039305311  0.9455776091844333  0.7646586607245500
  0.7244708043717745  0.5591210553768234  0.1528167950609504
  0.2809914090314784  0.5963913401681903 -0.1805005016827595
  0.2986667564662476  0.8611917700184599  0.5578679134105131
  0.7018222551790616  0.1104922726287735  0.4157437122967869
  0.6781396039463853  0.8959757592041663  0.4586729880301171
  0.3281388494220430  0.0620836122534793  0.5772128390807841
  0.7494698257111685  0.3749326781759235  0.5068094250145415
  0.2433366123307644  0.5441832886505711  0.4503018722793953
  0.2745185166771817  0.3487422772247463  0.6236045455302150
  0.8176078977533227  0.5055251042775626  0.5529134443355103
  0.1219175266339559  0.8472221148411690  0.7868077502430060
  0.8121122801863072  0.1683507629654601  0.2057200804851713
  0.8493925728240529  0.8416586852618789  0.3457815787539180
  0.1102661477262884  0.3448522354087379  0.2413927455754848
  0.7048697333561758  0.3298793472365299  0.8271333389728156
  0.2956286982819414  0.7280983747153228  0.2114576621646709
  0.3572155336818758  0.3808126548477444  0.2914872154944738
  0.6921801910119054  0.6156878948876147  0.6192129377505653
  0.0841770212278777  0.3434367239158826  0.3087432762901604
  0.8116499151880917  0.8396986709998713  0.3212910741467969
  0.7754177307804420  0.1496245750332769  0.1986890415242064
  0.1539017596235932  0.8883197439141968  0.8154267335073684
  0.7243912704169972  0.6555504770363030  0.6493988596025893
  0.3262023250798646  0.3932255748101848  0.2141564310605934
  0.2593253588372953  0.7584321948248013  0.1956673114990967
  0.7330844417637874  0.3003043475875733  0.9126996567120254
  0.1912040519506608  0.0213026815589591  0.4148753878663325
  0.8070754081409500  0.9389475505018942  0.6490387616474173
  0.8005608502931710  0.9272207161470623  0.9185838236087990
  0.1831403940940528  0.1219511081334136  0.1368213354503426
  0.6815509714732003  0.5345986484450902  0.2319308795007314
  0.3281800350791840  0.5884247169124747 -0.2364106200212958
  0.2760678215664512  0.6531312717430363 -0.0593741979988304
  0.7200003848955110  0.6174689658615368 -0.0057234617927291
  0.3723511142368635 -0.0627632356298437  0.4557011002547113
  0.6247625242685204  0.0535242525947088  0.5048326623316977
  0.8341549745637330  0.3141258982431088  0.4866446238035206
  0.1862166977267057  0.3864257459670876  0.5392626824178870
  0.3662787985272217  0.0763523324187236  0.1497979160653634
  0.6182735168547189  1.0104655537806702  0.8124945787351263
  0.8909116352920435  0.4994817806370397  0.2500433282218858
  0.1294373604233547  0.4374502119477537  0.7512817251537511
  0.4537643585373294 -0.0799632833592995 -0.0827164404630963
  0.9776092464731884  0.3600650479406950  0.9048673164103909
  0.4966362529347119  0.5062169709569284  0.5607069287068871
  1.0108554125908886 -0.0505241649574035  0.5142088178023159
  0.2782180815587461  0.1537403255665569  0.9515823061654978
  0.6961770007118039  0.9321531648078781  0.0479944207319261
  0.8374464336916623  0.6034783945410747  0.9694682674192844
  0.1626280636514510  0.5457812047971973 -0.0176516002204502
  0.1134419504122451  0.6538610362386819  0.1160293880925719
 
             NaN             NaN             NaN
             NaN             NaN             NaN
             NaN             NaN             NaN
             NaN             NaN             NaN
             NaN             NaN             NaN
             NaN             NaN             NaN
             NaN             NaN             NaN
             NaN             NaN             NaN
             NaN             NaN             NaN
             NaN             NaN             NaN
             NaN             NaN             NaN
             NaN             NaN             NaN
             NaN             NaN             NaN
             NaN             NaN             NaN
             NaN             NaN             NaN
             NaN             NaN             NaN
             NaN             NaN             NaN
             NaN             NaN             NaN
             NaN             NaN             NaN
             NaN             NaN             NaN
             NaN             NaN             NaN
             NaN             NaN             NaN
             NaN             NaN             NaN
             NaN             NaN             NaN
             NaN             NaN             NaN
             NaN             NaN             NaN
             NaN             NaN             NaN
             NaN             NaN             NaN
             NaN             NaN             NaN
             NaN             NaN             NaN
             NaN             NaN             NaN
             NaN             NaN             NaN
             NaN             NaN             NaN
             NaN             NaN             NaN
             NaN             NaN             NaN
             NaN             NaN             NaN
             NaN             NaN             NaN
             NaN             NaN             NaN
             NaN             NaN             NaN
             NaN             NaN             NaN
             NaN             NaN             NaN
             NaN             NaN             NaN
             NaN             NaN             NaN
             NaN             NaN             NaN
             NaN             NaN             NaN
             NaN             NaN             NaN
             NaN             NaN             NaN
             NaN             NaN             NaN
             NaN             NaN             NaN
             NaN             NaN             NaN
             NaN             NaN             NaN
             NaN             NaN             NaN
             NaN             NaN             NaN
             NaN             NaN             NaN
             NaN             NaN             NaN
             NaN             NaN             NaN
             NaN             NaN             NaN
             NaN             NaN             NaN
             NaN             NaN             NaN
             NaN             NaN             NaN
             NaN             NaN             NaN
             NaN             NaN             NaN
             NaN             NaN             NaN
             NaN             NaN             NaN
             NaN             NaN             NaN
             NaN             NaN             NaN
             NaN             NaN             NaN
             NaN             NaN             NaN
             NaN             NaN             NaN
             NaN             NaN             NaN
             NaN             NaN             NaN
             NaN             NaN             NaN
             NaN             NaN             NaN
             NaN             NaN             NaN
             NaN             NaN             NaN
             NaN             NaN             NaN
             NaN             NaN             NaN
             NaN             NaN             NaN
             NaN             NaN             NaN
             NaN             NaN             NaN
             NaN             NaN             NaN
