N    C    H    Fe   Cu   O    Li
   1.00000000000000     
  19.0209642792937004   1.4780335908689100   2.7945386898400399
   0.6630741394612520   7.1168684881531696   0.2301860463285450
  -1.2331596225132699   0.0144104439837595   7.2171932320580403
N    C    H    Fe   Cu   O    Li
12  20  40  2  2  4  1  
Direct
  0.4945179349943809  0.2262215116152109  0.8405974693963794  
  0.5067992812261205  0.8094712790052593  0.2276265577145887  
  0.4736143079664775  0.2264090359623357  0.2378495640300101  
  0.4788799714307833  0.8333360265066163  0.8257980045178794  
  0.0282904705072286  0.5974245473896260  0.7462645490186136  
  0.0294567744529520  0.1965306914982851  0.1143564694685261  
  0.9879230584522112  0.6234209825846196  0.1238716066884183  
  0.9773410562334968  0.2230084781038214  0.7136606890475987  
  0.2634510608715564  0.0924037517530315  0.1646169597377757  
  0.7170136287169724  0.9933880164016444  0.9438598024669788  
  0.7715072897854903  0.4667458360144830  0.0804085098244572  
  0.2738366669392011  0.5400433322209069  0.8626262874817384  
  0.5056663975566270  0.3315172882293336  0.7239054546749251  
  0.5139493869102059  0.6922817567428143  0.3445574712890681  
  0.4652097023480977  0.3453164582106412  0.3483192671119508  
  0.4688374136078473  0.7271336535097163  0.7110903791787229  
  0.0353794468346063  0.7055523400351068  0.6257620707921409  
  0.0378065882402990  0.0784803971652241  0.2325595947322737  
  0.9790534937684990  0.7336534691984459  0.2437032206572353  
  0.9748014874389362  0.1095833589386139  0.5996623397409875  
  0.3357924131422285  0.0672140059731158  0.1761332214117846  
  0.6452240910397269  0.0139180807051748  0.9197160292052288  
  0.8433674539410270  0.4343819097109178  0.0918020149896714  
  0.2015060696419270  0.5684131754662040  0.8648585544104450  
  0.2230395464971254  0.1214443819809791  0.3317653405671793  
  0.7604367548457007  0.0129633231580217  0.7855013586289562  
  0.7319168020737662  0.4486882282602150  0.2467095700325064  
  0.3103315381401133  0.4039378913409345  0.7344223032973968  
  0.2273798463679857  0.0949125677374942  0.0025793942841430  
  0.7493708952584083  0.9507512102014570  0.1104373088880443  
  0.7350177687639092  0.5133032412753021  0.9201483660349258  
  0.3128296895424140  0.6300642850541960  0.9762633573801348  
  0.1895680589746775  0.0128426106123346  0.3459580241907020  
  0.7916550711060208  0.1255730413616688  0.8076248362568428  
  0.7962411211688506  0.8788838447098672  0.7633716603534588  
  0.1891894564472768  0.2615470032194884  0.3261058711328317  
  0.7065270274874538  0.3228430980660493  0.2395347074191452  
  0.3473197257663572  0.4713732630999410  0.6558553068866791  
  0.3394903494163860  0.2798631334348314  0.8096765526789588  
  0.6914399569218417  0.5753282609965894  0.2597797715452171  
  0.1497485323156480  0.6419171053592952  0.4101025701005935  
  0.8522532904898981  0.0664031793505867  0.4530748881043559  
  0.8624434559776969  0.6523656377761724  0.5098027669355343  
  0.1135065483085799  0.1845025455107862  0.6388216264670672  
  0.6355742058940049  0.4033270826280892  0.5723624844896621  
  0.3340290643845186  0.8006532534981524  0.5785495676202884  
  0.3279932176431423  0.4501254793125860  0.3234119291552298  
  0.6307761172446893  0.8540001158551155  0.4569072154327116  
  0.1517415882856776  0.1722204598712873  0.6669246030356589  
  0.8636825204060916  0.5756248644560333  0.5819344545048830  
  0.8143628154295961  0.0818978748489814  0.4200490726404474  
  0.1770950319401068  0.6210622923219037  0.3380761960635120  
  0.6643922966006707  0.8270942442462924  0.5125769161076303  
  0.2886705420189619  0.4777795984527564  0.3267240440608505  
  0.2965816243480619  0.7999348308844888  0.5478668402851562  
  0.6743423919182906  0.3836217508888025  0.5963845689142058  
  0.1704769092929507  0.1110108318923290  0.0053268215277536  
  0.7164370155278289  0.9321850863166130  0.2250950118526018  
  0.8064354885379219  0.9287257569631034  0.1190559901113022  
  0.2576824510431919  0.0624305736670900  0.8808830825399820  
  0.6779760089217785  0.5415474863104148  0.9225260550876632  
  0.3697385547132978  0.6007495078666718  0.9677487877970919  
  0.2849633815222813  0.7276476924060342  0.0717460180660987  
  0.7648446056392688  0.5243193249345771  0.7979453363859453  
  0.2596535297205668  0.1118472158423836  0.4492008294320752  
  0.7260781284061666  0.0497752655250314  0.6645495844586512  
  0.7681472157543583  0.4347659894390412  0.3653249155853538  
  0.2712321289928813  0.3609267687874188  0.6408088232466924  
  0.3581488426701651  0.0656476076729280  0.3156943978330445  
  0.6256321137605010  0.0509043790413304  0.7793005618339784  
  0.8666867074243532  0.3941900252742940  0.2280524857965329  
  0.1774414530033327  0.4888826717797639  0.7607353260254318  
  0.4895653032414982  0.0218993069328221  0.0354868166663000  
  0.9862043301869268  0.4026489803154678  0.9239429180668440  
  0.4883249631759126  0.5244398214419796  0.5315539005347183  
  0.0070820292007591  0.9069497047609926  0.4273013950124332  
  0.3727090279220440  0.0486368149807168  0.0372193412949930  
  0.6058350745107614  0.9926161271265516  0.0489653553701319  
  0.8796685280884925  0.4495921639544197  0.9525884166261240  
  0.1658537487327606  0.6762286093404489  0.9743931002891532  
  0.0660302143703783  0.7322030802532965  0.9831651650655802  
