H    Li   C    N    O    Cd   Ni        
   1.00000000000000     
     7.4587641625852932   -1.1327719822032112    0.3535807983944357
    -0.4309360025856949    7.4581487922225813    0.0772125351552095
    -0.0671165320895943    0.0414188429842271    7.1546865673311784
   H    Li   C    N    O    Cd   Ni
    14     1    10     6     2     1     1
Selective dynamics
Direct
  0.5657360022599111  0.9706421294477302  0.6890615669281527   T   T   T
  0.2186476859186633  0.0221532143539064  0.2822177291831500   T   T   T
  0.3565409407407204  0.2461376082124728  0.2914948622267378   T   T   T
  0.2038238946898233  0.1558523328149815  0.4839752066700874   T   T   T
  0.5759087353191691  0.0549055788599451  0.2019329113731453   T   T   T
  0.5179150545536548  0.8322171760480713  0.3050679674199721   T   T   T
  0.6987420622870486  0.0107271235408330  0.3937547533508215   T   T   T
  0.3432986823568075  0.5532323171519962  0.5054027138794766   T   T   T
  0.5531842383795604  0.3651435187487133  0.9572003499778587   T   T   T
  0.6651268142706425  0.6018218811028951  0.9446858892571388   T   T   T
  0.7180288225189990  0.4480147376456497  0.7736720907562826   T   T   T
  0.3333629245854066  0.6747213121912160  0.9332896947454032   T   T   T
  0.2493767051247706  0.4301004273939002  0.9470725973214684   T   T   T
  0.1969766220034773  0.5631709096549096  0.7551354350359336   T   T   T
  0.7793950943692991  0.7530993614249240  0.3903593315785058   T   T   T
  0.9813877676395406  0.8157660470714024  0.0612070421940901   T   T   T
  0.9511935659867125  0.1658475473318774  0.7111950484824374   T   T   T
  0.9549386674327499  0.8193324319040338  0.7022774901594306   T   T   T
  0.9391398831863789  0.1535909758828475  0.0626243682286896   T   T   T
  0.4544978453251940  0.0394483598069412  0.6494715326646679   T   T   T
  0.2964544188163451  0.1218737789967534  0.3756903392073702   T   T   T
  0.5624398958010587  0.9790948035807557  0.3359010556540927   T   T   T
  0.4728298800290860  0.5343554937742969  0.5636809366291157   T   T   T
  0.6092801947710369  0.4820466586198394  0.8624759219698280   T   T   T
  0.3018243031706647  0.5481531576465665  0.8527900074005909   T   T   T
  0.9472154083868860  0.6990501808347870  0.1798502555112633   T   T   T
  0.9082466528502068  0.2697712686111065  0.6046155532575671   T   T   T
  0.9657179518813426  0.7134395803070152  0.5825411258310510   T   T   T
  0.9367858609751532  0.2686577271142883  0.1727240100481985   T   T   T
  0.4357565441977338  0.0447885437462063  0.4612285593865847   T   T   T
  0.4640521538377284  0.5210063525758964  0.7497738185464615   T   T   T
  0.3626032622869490  0.1007857305931459  0.7686732716458770   T   T   T
  0.6076283660757787  0.5307612610368960  0.4563857240406978   T   T   T
  0.9874070533179055  0.4804114144222478  0.3844147589244894   T   T   T
  0.9658110446535935  0.9878860575509542  0.8844740805133654   T   T   T
 
  0.00000000E+00  0.00000000E+00  0.00000000E+00
  0.00000000E+00  0.00000000E+00  0.00000000E+00
  0.00000000E+00  0.00000000E+00  0.00000000E+00
  0.00000000E+00  0.00000000E+00  0.00000000E+00
  0.00000000E+00  0.00000000E+00  0.00000000E+00
  0.00000000E+00  0.00000000E+00  0.00000000E+00
  0.00000000E+00  0.00000000E+00  0.00000000E+00
  0.00000000E+00  0.00000000E+00  0.00000000E+00
  0.00000000E+00  0.00000000E+00  0.00000000E+00
  0.00000000E+00  0.00000000E+00  0.00000000E+00
  0.00000000E+00  0.00000000E+00  0.00000000E+00
  0.00000000E+00  0.00000000E+00  0.00000000E+00
  0.00000000E+00  0.00000000E+00  0.00000000E+00
  0.00000000E+00  0.00000000E+00  0.00000000E+00
  0.00000000E+00  0.00000000E+00  0.00000000E+00
  0.00000000E+00  0.00000000E+00  0.00000000E+00
  0.00000000E+00  0.00000000E+00  0.00000000E+00
  0.00000000E+00  0.00000000E+00  0.00000000E+00
  0.00000000E+00  0.00000000E+00  0.00000000E+00
  0.00000000E+00  0.00000000E+00  0.00000000E+00
  0.00000000E+00  0.00000000E+00  0.00000000E+00
  0.00000000E+00  0.00000000E+00  0.00000000E+00
  0.00000000E+00  0.00000000E+00  0.00000000E+00
  0.00000000E+00  0.00000000E+00  0.00000000E+00
  0.00000000E+00  0.00000000E+00  0.00000000E+00
  0.00000000E+00  0.00000000E+00  0.00000000E+00
  0.00000000E+00  0.00000000E+00  0.00000000E+00
  0.00000000E+00  0.00000000E+00  0.00000000E+00
  0.00000000E+00  0.00000000E+00  0.00000000E+00
  0.00000000E+00  0.00000000E+00  0.00000000E+00
  0.00000000E+00  0.00000000E+00  0.00000000E+00
  0.00000000E+00  0.00000000E+00  0.00000000E+00
  0.00000000E+00  0.00000000E+00  0.00000000E+00
  0.00000000E+00  0.00000000E+00  0.00000000E+00
  0.00000000E+00  0.00000000E+00  0.00000000E+00
