N    C    H    Ag   Cd   O    Li        
   1.00000000000000     
    18.5262542054526911   -0.2655237325050830    0.6567182878587799
     0.0217677714372805    8.4934705676015536    0.9861988969782360
    -1.6535252625659749    0.7684179863519950    7.9042839572046804
   N    C    H    Ag   Cd   O    Li
    12    20    40     2     2     4     1
Direct
  0.5246303788637166  0.1669182053521660  0.7965988725639761
  0.5431360388649632  0.7951416016187997  0.2037219366925014
  0.4315627629553815  0.2970362798356924  0.1804961314679652
  0.4344169273639180  0.7399357914060264  0.7332277516290892
  0.0234822146967424  0.7162260514409721  0.7652163950116670
  0.0210463651920104  0.3262583353277407  0.1008730574425378
  0.9979791961988319  0.7418003403132968  0.1518354293271630
  0.9312914718958745  0.2552422442367522  0.6242887856997625
  0.2874092099124225  0.0335941645314453  0.2319466529002746
  0.7339343191282058  0.9784079040947872  0.7839019399148881
  0.7846945582090722  0.4805946784678604  0.1676467806111445
  0.2484459763645395  0.5394767731438007  0.8788112869130734
  0.5254387838452115  0.2844080479146848  0.6931237039313223
  0.5461126759750369  0.6883871106483818  0.3215460365801287
  0.4396645642718405  0.3770295881303308  0.2833210546417158
  0.4443173148292075  0.6571982308360282  0.6398406837908883
  0.0233070546703721  0.8195496367184432  0.6451347475355053
  0.0314508109985301  0.2209239242329564  0.2223917550250359
  0.9795685417227999  0.8369697632842893  0.2227194244722360
  0.9331247129969631  0.1734913316510024  0.5251155485722192
  0.3165022197531939  0.0544985233600393  0.0783316381732481
  0.6913760611550860  0.8824124696262716  0.8887597374391569
  0.8436465261297672  0.4418996196046205  0.0971666854308664
  0.1777472156628373  0.5296615934837555  0.9140399573601733
  0.3384272680549005  0.0096001731940635  0.3953339857164161
  0.7004957417318681  0.0505010669510016  0.6076982956609254
  0.7995921507303566  0.5277922019193940  0.3338783810701175
  0.2652148359471506  0.4636921478659227  0.7417771535526577
  0.2152262889471757  0.0318620526113348  0.2270948561978939
  0.8046467970548778  1.0031467391674533  0.8426433338516854
  0.7154387908615307  0.4901231225227236  0.0827453359866534
  0.3011345434842137  0.6156328114341887  0.9641285223719324
  0.3394838711514188  0.8846773534607594  0.4636332205548175
  0.7080901168289315  0.1799658101451184  0.5833428564332482
  0.7254781796302057 -0.0013769845033077  0.5174021259219809
  0.3216797937986830  0.0866035186730243  0.4754799970280833
  0.7613551725663515  0.4693888971748329  0.4148505090184638
  0.3035353785620625  0.5380098878065159  0.6734833799065508
  0.2896516936790116  0.3438583288514981  0.7960299592782842
  0.7919459286521201  0.6577337116155146  0.3131224013113990
  0.1827116211131109  0.8679944551525818  0.6329118820836266
  0.7556742077998150  0.1162902433780200  0.2201461713745728
  0.8511048885279608  0.8205555884008768  0.5736932235816088
  0.1030728423676103  0.1767663584277637  0.7424952455930689
  0.6624756562638420  0.3096054768939381  0.7780846738380691
  0.2708067479468027  0.6782812552459584  0.3692890230899438
  0.2850773676539103  0.3577566472337945  0.3440757935572995
  0.6873517518334883  0.6488761756109788  0.5779443779965695
  0.1423795197683789  0.1487040636347868  0.7726471713906824
  0.8250756805973328  0.8433240778800218  0.4903847037001253
  0.7175142783738244  0.0875550400335456  0.1991720351326787
  0.2149683244952236  0.9078851979532309  0.6748514693023311
  0.7221782231209777  0.6277168008949532  0.6414364413271905
  0.2440581955386324  0.3570195278346852  0.3344554081968522
  0.2370677556144395  0.6758318248105952  0.3039415664009441
  0.7034563311044366  0.3150451228095594  0.7960291479374441
  0.1944098465984870  0.0145872178323940  0.3465421696741963
  0.8359610088990928  0.0797915320838264  0.7587311012452357
  0.8277759682927237  0.9433636896759545  0.9722181247313464
  0.1798908115846913  0.0468007462083452  0.1031900962457430
  0.6719380979585438  0.5240307381427783  0.1432606742892801
  0.3548478593225108  0.6239486207558589  0.9268426728384366
  0.2870891981495339  0.6679435648929267  0.0657626452124786
  0.7056810424750821  0.4661106766983807  0.9550842211336136
  0.3932179338926375  0.0422655064771504  0.3700798267539427
  0.6416677442634687  0.0285089911277736  0.5897522058069858
  0.8556516951693649  0.4913511381050096  0.3967907315504646
  0.2145264698426369  0.4545262090468532  0.6529451484764609
  0.3766492305272958  0.0591373030235085  0.1011311366828039
  0.6349329543372112  0.8712545767699503  0.8225730197729466
  0.8965466572662939  0.4416481559013219  0.1828571710474278
  0.1407946368202607  0.4685913872275131  0.8279168371951148
  0.5278857299362139  0.9759548711866977  0.9940680062805759
  0.9553162960012960  0.3354725779671511  0.8542067838147441
  0.4855668481622339  0.5030494964638628  0.4871482965273884
  0.9917106895935102  0.0048916587596164  0.4037355138178685
  0.2773469227422970  0.0693189608397321  0.9376558361398234
  0.7150673914539452  0.8168650479653035  0.0380102899219745
  0.8372896295338336  0.4111847709314588  0.9520953405709440
  0.1575590933784730  0.5861578041551730  0.0290186401662057
  0.0510348662901472  0.6190533109342259  0.0190502603144913
 
             NaN             NaN             NaN
             NaN             NaN             NaN
             NaN             NaN             NaN
             NaN             NaN             NaN
             NaN             NaN             NaN
             NaN             NaN             NaN
             NaN             NaN             NaN
             NaN             NaN             NaN
             NaN             NaN             NaN
             NaN             NaN             NaN
             NaN             NaN             NaN
             NaN             NaN             NaN
             NaN             NaN             NaN
             NaN             NaN             NaN
             NaN             NaN             NaN
             NaN             NaN             NaN
             NaN             NaN             NaN
             NaN             NaN             NaN
             NaN             NaN             NaN
             NaN             NaN             NaN
             NaN             NaN             NaN
             NaN             NaN             NaN
             NaN             NaN             NaN
             NaN             NaN             NaN
             NaN             NaN             NaN
             NaN             NaN             NaN
             NaN             NaN             NaN
             NaN             NaN             NaN
             NaN             NaN             NaN
             NaN             NaN             NaN
             NaN             NaN             NaN
             NaN             NaN             NaN
             NaN             NaN             NaN
             NaN             NaN             NaN
             NaN             NaN             NaN
             NaN             NaN             NaN
             NaN             NaN             NaN
             NaN             NaN             NaN
             NaN             NaN             NaN
             NaN             NaN             NaN
             NaN             NaN             NaN
             NaN             NaN             NaN
             NaN             NaN             NaN
             NaN             NaN             NaN
             NaN             NaN             NaN
             NaN             NaN             NaN
             NaN             NaN             NaN
             NaN             NaN             NaN
             NaN             NaN             NaN
             NaN             NaN             NaN
             NaN             NaN             NaN
             NaN             NaN             NaN
             NaN             NaN             NaN
             NaN             NaN             NaN
             NaN             NaN             NaN
             NaN             NaN             NaN
             NaN             NaN             NaN
             NaN             NaN             NaN
             NaN             NaN             NaN
             NaN             NaN             NaN
             NaN             NaN             NaN
             NaN             NaN             NaN
             NaN             NaN             NaN
             NaN             NaN             NaN
             NaN             NaN             NaN
             NaN             NaN             NaN
             NaN             NaN             NaN
             NaN             NaN             NaN
             NaN             NaN             NaN
             NaN             NaN             NaN
             NaN             NaN             NaN
             NaN             NaN             NaN
             NaN             NaN             NaN
             NaN             NaN             NaN
             NaN             NaN             NaN
             NaN             NaN             NaN
             NaN             NaN             NaN
             NaN             NaN             NaN
             NaN             NaN             NaN
             NaN             NaN             NaN
             NaN             NaN             NaN
