N    C    H    Pb   Pt   O    Li        
   1.00000000000000     
    14.9962359826652420    0.3020348806885200   -1.4064529793590799
     0.5293770611283876    7.4115838481433602    0.0638498796235952
    -2.3684404236860961    0.1242635288795598    7.3410719524107790
   N    C    H    Pb   Pt   O    Li
    12    20    40     2     2     4     1
Direct
  0.4613939395453615  0.2239843768925027  0.7647107430561743
  0.5424027430434732  0.7796931607534150  0.2366775714304198
  0.5375599857117682  0.2129752324781305  0.2308840169053157
  0.4666226064494167  0.7903824418584937  0.7708771828652217
  0.9381788412109510  0.7132315142264505  0.7608420209372340
  0.0654570526545663  0.2661782967538857  0.3221339935579583
  0.0452543279244976  0.7084113529923434  0.2078496905864755
  0.9391066081152724  0.2768129544082465  0.6974945057572903
  0.2719719653739259  0.0240017084662878  0.2017189587127741
  0.7336353005383892  0.0027661944330433  0.8059032759774712
  0.7576239674269559  0.5042658512390591  0.2145899899645767
  0.2434449532396085  0.5045560637011198  0.7873006753520972
  0.4788757931075053  0.3228157213170187  0.6644382620545972
  0.5246417871037377  0.6808588179206654  0.3367275180170693
  0.5225436574741673  0.3170643648398742  0.3342427326565971
  0.4808547137370222  0.6859937348641206  0.6669732630811842
  0.9571503983454620  0.7820687073068618  0.6424210046156331
  0.0380118089184273  0.1374663237041258  0.3678801284117520
  0.0253250230069652  0.7728175643464731  0.3293325343370953
  0.9626316721774943  0.1484713476260920  0.6304341083914731
  0.3533204288583652  0.0173998121763181  0.1703534530748593
  0.6518938248441318  0.9947444714730341  0.8337776022423026
  0.8412793356403232  0.5078555939435259  0.1922002542119506
  0.1583139029212779  0.5250578553660628  0.8043444070212865
  0.2760018363672080  0.0095549421844270  0.3944665520958635
  0.7313423038378204  0.0029513214203264  0.6140778757384235
  0.7568385637120654  0.5048397377696227  0.4032642456469029
  0.2460176875704976  0.4911121501789881  0.6004220623977640
  0.1793693111621517  0.0345397926849839  0.0508546504996087
  0.8247900757158175  0.0029555024637901  0.9575583833404662
  0.6687867428502764  0.5014218079717346  0.0585759946493576
  0.3318959960875593  0.5104728474745467  0.9447261763997264
  0.2417870398179869  0.8895443971330077  0.4111620315617477
  0.7668158455844806  0.1184198435833384  0.5913808937864683
  0.7702241983495474  0.8771833675287397  0.5959245567382283
  0.2366707168965108  0.1299958252067700  0.4221318234778619
  0.7224501240384580  0.3880115549790685  0.4256008447701563
  0.2810840561045906  0.6055289900972448  0.5739536051981078
  0.2872850468500505  0.3646131434032753  0.5933825319870795
  0.7159518013795423  0.6295166574881069  0.4174626456116001
  0.1767410231139159  0.8456370221023217  0.6498375526616791
  0.8171034181638319  0.1655199182410884  0.3288902104002791
  0.8170321625970900  0.8285375833194991  0.3411279421836414
  0.1745747822165695  0.1835311247888564  0.6611115389507093
  0.6779459512462507  0.3499537936642627  0.6841418336746415
  0.3256982792345154  0.6629423047711136  0.3226625560984390
  0.3264224194022287  0.3456367316744224  0.3310545300782508
  0.6750097571046381  0.6737483055056740  0.6696460823633746
  0.2181769937266161  0.1524739661425868  0.7491423299498314
  0.7715657323404200  0.8547503344682017  0.2541621855553865
  0.7729413922745819  0.1470789363943257  0.2433780759824680
  0.2257719331189846  0.8583330896297884  0.7269321656493295
  0.7220155724626321  0.6527712846434111  0.7542733737148679
  0.2780060965104287  0.3608392984404948  0.2486471117561722
  0.2775043819645571  0.6594059512387522  0.2404559198757846
  0.7272807905619363  0.3541696095321885  0.7633705758596002
  0.1483012621444366  0.1576671656120485  0.9598325446976781
  0.8609255968705675  0.8761188769160996  0.0342863557809028
  0.8583015793003053  0.1299360478344816 -0.0138791488945104
  0.1505619305948367  0.9036937735567800  0.0097606557414246
  0.6374779634110004  0.6241301802985166  0.9688066269149018
  0.3735482606398942  0.3834715524760933  0.0092658489149040
  0.3579045641771103  0.6408752202535534 -0.0094740421081591
  0.6321699684844662  0.3774429961020086  0.0366598676073988
  0.3520456521608474 -0.0035937744807990  0.4954694470653369
  0.6557920643425256  0.0136782062774324  0.5110587358461044
  0.8317778883157834  0.4970221198708781  0.5083834444032583
  0.1715344824505889  0.4957835118319430  0.4935934169024146
  0.4209367265476733  0.0076830560195819  0.2972083499833035
  0.5857125514068532  0.9935907304380152  0.7053653257687271
  0.9063842255665391  0.5064387941424228  0.3231429860109242
  0.0946654251027747  0.5111226880385871  0.6735390740228744
  0.5012664755282592  0.0009828023111768  0.0002653016004848
 -0.0043129445641562  0.4220405390826931  0.0053861114831972
  0.5016698891215071  0.5017344015163722  0.5005056711182139
  0.9950416332147336  0.9520900503569519  0.4914001152218526
  0.3523625202050693  0.0215494159752548  0.9992468573086442
  0.6508336604516616  0.9905398099602621  0.0026391611589077
  0.8450883137964931  0.5078366685439185  0.0295757523362451
  0.1496749343607123  0.5592437921624549  0.9604027990349390
  0.0627794215188281  0.7465204145103713  0.9773487216992149
 
             NaN             NaN             NaN
             NaN             NaN             NaN
             NaN             NaN             NaN
             NaN             NaN             NaN
             NaN             NaN             NaN
             NaN             NaN             NaN
             NaN             NaN             NaN
             NaN             NaN             NaN
             NaN             NaN             NaN
             NaN             NaN             NaN
             NaN             NaN             NaN
             NaN             NaN             NaN
             NaN             NaN             NaN
             NaN             NaN             NaN
             NaN             NaN             NaN
             NaN             NaN             NaN
             NaN             NaN             NaN
             NaN             NaN             NaN
             NaN             NaN             NaN
             NaN             NaN             NaN
             NaN             NaN             NaN
             NaN             NaN             NaN
             NaN             NaN             NaN
             NaN             NaN             NaN
             NaN             NaN             NaN
             NaN             NaN             NaN
             NaN             NaN             NaN
             NaN             NaN             NaN
             NaN             NaN             NaN
             NaN             NaN             NaN
             NaN             NaN             NaN
             NaN             NaN             NaN
             NaN             NaN             NaN
             NaN             NaN             NaN
             NaN             NaN             NaN
             NaN             NaN             NaN
             NaN             NaN             NaN
             NaN             NaN             NaN
             NaN             NaN             NaN
             NaN             NaN             NaN
             NaN             NaN             NaN
             NaN             NaN             NaN
             NaN             NaN             NaN
             NaN             NaN             NaN
             NaN             NaN             NaN
             NaN             NaN             NaN
             NaN             NaN             NaN
             NaN             NaN             NaN
             NaN             NaN             NaN
             NaN             NaN             NaN
             NaN             NaN             NaN
             NaN             NaN             NaN
             NaN             NaN             NaN
             NaN             NaN             NaN
             NaN             NaN             NaN
             NaN             NaN             NaN
             NaN             NaN             NaN
             NaN             NaN             NaN
             NaN             NaN             NaN
             NaN             NaN             NaN
             NaN             NaN             NaN
             NaN             NaN             NaN
             NaN             NaN             NaN
             NaN             NaN             NaN
             NaN             NaN             NaN
             NaN             NaN             NaN
             NaN             NaN             NaN
             NaN             NaN             NaN
             NaN             NaN             NaN
             NaN             NaN             NaN
             NaN             NaN             NaN
             NaN             NaN             NaN
             NaN             NaN             NaN
             NaN             NaN             NaN
             NaN             NaN             NaN
             NaN             NaN             NaN
             NaN             NaN             NaN
             NaN             NaN             NaN
             NaN             NaN             NaN
             NaN             NaN             NaN
             NaN             NaN             NaN
