H    Li   C    N    O    Zn   Ni        
   1.00000000000000     
     7.4515720741444786   -1.2067363447146231    0.0551269087447031
    -0.5116778006718323    7.3231297673454510    0.0375891437039354
    -0.3169724115963178   -0.0030066737243843    6.7237161040157520
   H    Li   C    N    O    Zn   Ni
    14     1    10     6     2     1     1
Selective dynamics
Direct
  0.6814721153467670  0.9570807011473682  0.5791069463077427   T   T   T
  0.1968668906993123  0.0304755372547767  0.3509322198171834   T   T   T
  0.3326420993822630  0.2606850165895911  0.3917411870372094   T   T   T
  0.2640975008623764  0.1100659493546575  0.5995624875302177   T   T   T
  0.5685972519964526  0.1632716658985049  0.1655354382090196   T   T   T
  0.4392419485220707  0.9304394766284616  0.1473591218107270   T   T   T
  0.6668704123195617 -0.0181151948086546  0.2565498981806544   T   T   T
  0.2851291987166176  0.6742672301605921  0.5731947040047385   T   T   T
  0.5101075601369183  0.2969353849218201  0.8461862818618734   T   T   T
  0.6656913808279481  0.5077087810697228  0.9294188818046262   T   T   T
  0.6558673924540817  0.4379911595276885  0.6759372015921514   T   T   T
  0.4114675602247047  0.6302391873865086  0.0547486865285022   T   T   T
  0.2439509173602336  0.4284697884479979  0.9722733958270897   T   T   T
  0.2307382465589731  0.6561007627455793  0.8844357056520191   T   T   T
  0.7267786503435844  0.6947180327171057  0.3668372669858057   T   T   T
  0.9675614648043600  0.7835667443899204  0.0739287743162744   T   T   T
  0.9879567911482009  0.1715801745479486  0.7256869355586560   T   T   T
  0.9375184699279131  0.7998161847468869  0.6980504167890871   T   T   T
  0.9592554026649568  0.1452142714494028  0.0887543092464961   T   T   T
  0.5542787865243971  0.0026682327239884  0.6073772045799248   T   T   T
  0.3058071093106065  0.1153125470487447  0.4456510758093614   T   T   T
  0.5385968255114763  0.0275817933119658  0.2428682332915059   T   T   T
  0.4016842791024456  0.6065498638921882  0.5818692830343136   T   T   T
  0.5750027785673452  0.4415475569884662  0.8059980683086306   T   T   T
  0.3234431877946005  0.5664858200716713  0.9278911134277780   T   T   T
  0.9268837900897197  0.6520931386416422  0.1811114072588763   T   T   T
  0.9654832150567658  0.2947903899667014  0.6213632368109190   T   T   T
  0.9417007090067344  0.6839033384524084  0.5771234684989540   T   T   T
  0.9726431167137831  0.2695356606610232  0.2019339376749165   T   T   T
  0.4693170655361148  0.0443850280727228  0.4385655610647899   T   T   T
  0.4364124343788060  0.5461981572178614  0.7627998627136329   T   T   T
  0.5026022462920715  0.0132986057676655  0.7796391151203865   T   T   T
  0.4896897795689272  0.5916611186899042  0.4284454323480079   T   T   T
  0.9765403078498821  0.4687212273526457  0.3965122883226304   T   T   T
  0.9693781143990280  0.9727636669645251  0.8969288526753005   T   T   T
 
  0.00000000E+00  0.00000000E+00  0.00000000E+00
  0.00000000E+00  0.00000000E+00  0.00000000E+00
  0.00000000E+00  0.00000000E+00  0.00000000E+00
  0.00000000E+00  0.00000000E+00  0.00000000E+00
  0.00000000E+00  0.00000000E+00  0.00000000E+00
  0.00000000E+00  0.00000000E+00  0.00000000E+00
  0.00000000E+00  0.00000000E+00  0.00000000E+00
  0.00000000E+00  0.00000000E+00  0.00000000E+00
  0.00000000E+00  0.00000000E+00  0.00000000E+00
  0.00000000E+00  0.00000000E+00  0.00000000E+00
  0.00000000E+00  0.00000000E+00  0.00000000E+00
  0.00000000E+00  0.00000000E+00  0.00000000E+00
  0.00000000E+00  0.00000000E+00  0.00000000E+00
  0.00000000E+00  0.00000000E+00  0.00000000E+00
  0.00000000E+00  0.00000000E+00  0.00000000E+00
  0.00000000E+00  0.00000000E+00  0.00000000E+00
  0.00000000E+00  0.00000000E+00  0.00000000E+00
  0.00000000E+00  0.00000000E+00  0.00000000E+00
  0.00000000E+00  0.00000000E+00  0.00000000E+00
  0.00000000E+00  0.00000000E+00  0.00000000E+00
  0.00000000E+00  0.00000000E+00  0.00000000E+00
  0.00000000E+00  0.00000000E+00  0.00000000E+00
  0.00000000E+00  0.00000000E+00  0.00000000E+00
  0.00000000E+00  0.00000000E+00  0.00000000E+00
  0.00000000E+00  0.00000000E+00  0.00000000E+00
  0.00000000E+00  0.00000000E+00  0.00000000E+00
  0.00000000E+00  0.00000000E+00  0.00000000E+00
  0.00000000E+00  0.00000000E+00  0.00000000E+00
  0.00000000E+00  0.00000000E+00  0.00000000E+00
  0.00000000E+00  0.00000000E+00  0.00000000E+00
  0.00000000E+00  0.00000000E+00  0.00000000E+00
  0.00000000E+00  0.00000000E+00  0.00000000E+00
  0.00000000E+00  0.00000000E+00  0.00000000E+00
  0.00000000E+00  0.00000000E+00  0.00000000E+00
  0.00000000E+00  0.00000000E+00  0.00000000E+00
