N    C    H    Mn   Ni   O    Li
   1.00000000000000     
  16.7743924541276996  -0.1812126956329780   0.2554711521832040
  -0.0827791225268367   7.5727737667412098   0.0317812619672890
  -1.8174756786739898   0.0498154925543689   7.0746529009660604
N    C    H    Mn   Ni   O    Li
12  20  40  2  2  4  1  
Direct
  0.4779337191975307  0.2018467618981626  0.7501745411239498  
  0.5052565455152501  0.7837246916167526  0.1891347765896640  
  0.5101456403149821  0.2137029735384806  0.1883812872679717  
  0.4721283412188315  0.7780245874369662  0.7445571111524640  
  0.9865312522197374  0.7245643283868100  0.7566611755513188  
  0.0132980054405232  0.2954418520109900  0.1887253799815140  
  0.0103394567619852  0.7197325496936343  0.1944235256190232  
  0.9843168486661515  0.2918813742792773  0.7494348399076959  
  0.2783668583663392  0.9988435420015430  0.2221202428474167  
  0.7215054455497211  0.0063462663410252  0.7990191036701038  
  0.7608407667387836  0.5068700279958195  0.1466587964370833  
  0.2309154070774089  0.4812558398896560  0.8214131339255664  
  0.4837607893522587  0.3165742470843887  0.6432342471192968  
  0.5023709582895044  0.6696772790674287  0.2988596851477526  
  0.5050502810987058  0.3232550223162412  0.2970963018877505  
  0.4806688516111094  0.6658100750315368  0.6414562395560988  
  0.9961504011340596  0.8348548691470493  0.6493516498793196  
  0.0128604945128320  0.1823127275341137  0.3004625592000866  
  0.0117047685634936  0.8334753736443268  0.3030935951618905  
  0.9944201469824464  0.1827356864900192  0.6443245743325411  
  0.3457197714386963  0.0024099250289260  0.1562162410161772  
  0.6431960463315302  0.9904321074000150  0.8226285276375982  
  0.8383038850113275  0.4966625796149293  0.1231234940911726  
  0.1509169650680143  0.5062063308129071  0.8248458920084497  
  0.2907771522213378  0.9947822538903081  0.4271279049253511  
  0.7336586589285604  0.0285507925367990  0.6070925561411250  
  0.7469768922247233  0.5048185259550109  0.3376018699265439  
  0.2504736462967002  0.4437300774581557  0.6409615640770708  
  0.1931540024848060  0.0035698154209443  0.1141497863125475  
  0.7888342820640925  0.0048576596451399  0.9462153989348300  
  0.6899241450139381  0.5099871773963770  0.0011151745050425  
  0.2942135611608632  0.4939864766961405  0.9763773561698512  
  0.2589164717944517  0.8783408591675033  0.4690843079542026  
  0.7704180519352775  0.1484021664732944  0.5981760694975082  
  0.7642937123517034  0.9144398052141436  0.5665701893698144  
  0.2635739012099587  0.1120613240185886  0.4720555426646514  
  0.7110829727399797  0.3859866622675294  0.3541324544902472  
  0.2847402210996903  0.5562693348577008  0.5998886461463222  
  0.2888007914719997  0.3269470807784862  0.6571268033684234  
  0.7121237841111938  0.6208464216952628  0.3571413546273113  
  0.2024762164823580  0.8260360618272607  0.7370312887518358  
  0.8444769316635615  0.1767268784816432  0.3725307837668659  
  0.8617195435027879  0.8151916056644871  0.3990717495194097  
  0.1855519034429931  0.1401068749114801  0.7044566271959103  
  0.6371542035251344  0.3343679256670207  0.5841306539969391  
  0.3557213847202241  0.6733221397044986  0.3847873097563616  
  0.3525142444881263  0.3567164958054014  0.3854953423362243  
  0.6438746937741593  0.6813762305963331  0.5926120226820704  
  0.2070183556035831  0.1340640701751509  0.8106589966456880  
  0.8181747824721176  0.8323429219690696  0.3496243926843725  
  0.8145117926512071  0.1663300975203391  0.2796911428861521  
  0.2226938672720097  0.8507202762942135  0.8402610458237287  
  0.6830887593334664  0.6666224122130394  0.6646629154503287  
  0.3122347448010880  0.3422206799364257  0.3169965936781485  
  0.3105952222862041  0.6644860898529852  0.3454730505552243  
  0.6784450578450947  0.3574969524769506  0.6446241245661070  
  0.1677054398969262  0.1244597625551007  0.1609397179028223  
  0.7775615196545245  0.0043329106706831  0.0859504983407183  
  0.8489499677446450  0.9994527068415709  0.9142254758243724  
  0.1615673177583167  0.8931918179291752  0.1718056358634691  
  0.6426110968666494  0.6014892655375792  0.0181099949281166  
  0.3531317859090937  0.4419247375197937  0.9642013156378916  
  0.2830166504010079  0.5551246000022508  0.1016049938495288  
  0.6760037648155850  0.3998327370874978  0.9038993081385670  
  0.3561472915647012  0.9908978047369990  0.4973206878075415  
  0.6738745582455429  0.0423848942298963  0.5074177135401141  
  0.8056029267730376  0.5044429718261129  0.4422156713521520  
  0.1941154576035191  0.4205901505586134  0.5327596411184129  
  0.4020934223681578  0.9993440992609990  0.2700382942638253  
  0.5967805434194873  0.9859133361267892  0.6885906121254614  
  0.8844197569971988  0.4928140806686216  0.2588800386422869  
  0.1095210699523206  0.5040635655650083  0.6835950958872654  
  0.4823023813959451  0.9922434032881770  0.9687804350935750  
  0.9951217892538839  0.5070038553480750  0.9765661448127960  
  0.4936695611434850  0.4935938405588960  0.4716498572703618  
  0.0063208671499155  0.0084902991300625  0.4774417726987086  
  0.3516139004102903  0.0072277249326124  0.9854153612679450  
  0.6252312987647438  0.9792170969082680  0.9800623504720500  
  0.8581072586075460  0.4953507875851691  0.9684575859041420  
  0.1273766568498139  0.5300398176583127  0.9737122728957692  
  0.1287379747693559  0.9674886076636856  0.8443575131667154  
