H    Li   C    N    O    Pb   Pd        
   1.00000000000000     
     6.9580131643317120   -1.0605441109582625    0.7701391249538951
    -0.2577190442605526    7.8747860022932832   -0.0092439691679991
     0.3132255051454559   -0.0356346764203217    7.2197128150864565
   H    Li   C    N    O    Pb   Pd
    14     1    10     6     2     1     1
Selective dynamics
Direct
  0.5539740324999307  0.9430791788357612  0.6847381888695444   T   T   T
  0.2221868205491759  0.0078091634200184  0.2921310168538414   T   T   T
  0.3951453859026301  0.2021169933892759  0.2676507706644731   T   T   T
  0.2145402984496373  0.1624855594370569  0.4709418325124781   T   T   T
  0.6452373788986671  0.0041504835917903  0.2234912252655365   T   T   T
  0.4767401796596324  0.8085598894205656  0.2755341056747218   T   T   T
  0.6685272807171411  0.8714687195224965  0.4123625722253470   T   T   T
  0.3496970578668111  0.5302947570714398  0.4994575355908034   T   T   T
  0.5327778989287990  0.3861543842947657  0.9488547333245255   T   T   T
  0.6340972879163495  0.6163335159251589  0.9373122095866828   T   T   T
  0.7407753718547557  0.4710658070397286  0.7810282409949985   T   T   T
  0.3238909058948903  0.7030607632833796  0.9007516478389285   T   T   T
  0.2292020459071707  0.4768983688572677  0.9404940078947042   T   T   T
  0.1848578008365681  0.5861803973487190  0.7421345861682602   T   T   T
  0.7325869018997954  0.4769772216951920  0.1517451735357543   T   T   T
  0.9822317845501727  0.8294347559457765  0.0777209112828233   T   T   T
  0.9490168325640710  0.2005915786136368  0.7373993476089649   T   T   T
  0.9594295758834014  0.8538664623410154  0.7161188342237821   T   T   T
  0.9665526520185747  0.1987318942311267  0.1018649235005838   T   T   T
  0.4553737886043353  0.0252847181342457  0.6443439157196532   T   T   T
  0.3112934241078253  0.1013907385038705  0.3702784647978296   T   T   T
  0.5626532979406906  0.9188017122741320  0.3380444081971449   T   T   T
  0.4853680865957392  0.5098406603585375  0.5458099424455968   T   T   T
  0.6040092550222274  0.4992264638965773  0.8534035348496587   T   T   T
  0.2932787763439224  0.5770322703310229  0.8331445090087966   T   T   T
  0.9327665785342104  0.7007349647991616  0.1675570804094932   T   T   T
  0.9133943843364006  0.3042105645139468  0.6381390581833476   T   T   T
  0.9232002755221810  0.7393309265547896  0.6147306376359872   T   T   T
  0.9169512621592987  0.3153400586147477  0.1859759677634261   T   T   T
  0.4403299834853656  0.0164084526403757  0.4598432812253709   T   T   T
  0.4714920442966098  0.5306847274305566  0.7309813806693527   T   T   T
  0.3688133358119308  0.1125409097509119  0.7602783070495880   T   T   T
  0.6213935584281733  0.4712129902208125  0.4287982584762459   T   T   T
  0.0460442226460725  0.5269511841753416  0.4025645918584982   T   T   T
  0.9895002333668711  0.0247927635368105  0.9109397980932586   T   T   T
 
  0.00000000E+00  0.00000000E+00  0.00000000E+00
  0.00000000E+00  0.00000000E+00  0.00000000E+00
  0.00000000E+00  0.00000000E+00  0.00000000E+00
  0.00000000E+00  0.00000000E+00  0.00000000E+00
  0.00000000E+00  0.00000000E+00  0.00000000E+00
  0.00000000E+00  0.00000000E+00  0.00000000E+00
  0.00000000E+00  0.00000000E+00  0.00000000E+00
  0.00000000E+00  0.00000000E+00  0.00000000E+00
  0.00000000E+00  0.00000000E+00  0.00000000E+00
  0.00000000E+00  0.00000000E+00  0.00000000E+00
  0.00000000E+00  0.00000000E+00  0.00000000E+00
  0.00000000E+00  0.00000000E+00  0.00000000E+00
  0.00000000E+00  0.00000000E+00  0.00000000E+00
  0.00000000E+00  0.00000000E+00  0.00000000E+00
  0.00000000E+00  0.00000000E+00  0.00000000E+00
  0.00000000E+00  0.00000000E+00  0.00000000E+00
  0.00000000E+00  0.00000000E+00  0.00000000E+00
  0.00000000E+00  0.00000000E+00  0.00000000E+00
  0.00000000E+00  0.00000000E+00  0.00000000E+00
  0.00000000E+00  0.00000000E+00  0.00000000E+00
  0.00000000E+00  0.00000000E+00  0.00000000E+00
  0.00000000E+00  0.00000000E+00  0.00000000E+00
  0.00000000E+00  0.00000000E+00  0.00000000E+00
  0.00000000E+00  0.00000000E+00  0.00000000E+00
  0.00000000E+00  0.00000000E+00  0.00000000E+00
  0.00000000E+00  0.00000000E+00  0.00000000E+00
  0.00000000E+00  0.00000000E+00  0.00000000E+00
  0.00000000E+00  0.00000000E+00  0.00000000E+00
  0.00000000E+00  0.00000000E+00  0.00000000E+00
  0.00000000E+00  0.00000000E+00  0.00000000E+00
  0.00000000E+00  0.00000000E+00  0.00000000E+00
  0.00000000E+00  0.00000000E+00  0.00000000E+00
  0.00000000E+00  0.00000000E+00  0.00000000E+00
  0.00000000E+00  0.00000000E+00  0.00000000E+00
  0.00000000E+00  0.00000000E+00  0.00000000E+00
