H    Li   C    N    O    Ge  Cu         
   1.00000000000000     
     6.3687072857639206   -1.0849988267801653    0.4292298222488670
    -0.4138801020324562    6.8296141025914592    0.0202137172647686
     0.0402765974697707   -0.0009932880719847    6.3912575538484564
   H    Li   C    N    O    Ge   Cu
    14     1    10     6     2     1     1
Selective dynamics
Direct
  0.5628935453830218  0.9573423116259466  0.7100418786045964   T   T   T
  0.2109737911524057  0.0143748647499430  0.2600528564137993   T   T   T
  0.3540677907677087  0.2546005843809510  0.2654666406852570   T   T   T
  0.1771303468421411  0.1656576338689760  0.4866302246446018   T   T   T
  0.5803770147530587  0.0630165708305652  0.1785738798738394   T   T   T
  0.5243403292040558  0.8201480403654300  0.2985113203816133   T   T   T
  0.7174282786561126  0.0204441429010550  0.3971562648944849   T   T   T
  0.3503525875958565  0.5443520483694340  0.4775251375906368   T   T   T
  0.5431176507100826  0.3546823753333544  0.9872464600164059   T   T   T
  0.6654614865706878  0.6066037317440860  0.9676376069738840   T   T   T
  0.7525611516102126  0.4356359534951178  0.7830729869530610   T   T   T
  0.3358216081827732  0.6929544649975719  0.9395287689588170   T   T   T
  0.2485105224303213  0.4270516223008857  0.9651983352700878   T   T   T
  0.1864372909845581  0.5669518068065525  0.7353611718358755   T   T   T
  0.7917027962942853  0.7929820813841411  0.3888824319552158   T   T   T
  0.9868125856460138  0.8080830588040707  0.0674603309434652   T   T   T
  0.9391773509797781  0.1733472254602948  0.7092827199641774   T   T   T
  0.9642217741947905  0.8140793412031539  0.6979168806333219   T   T   T
  0.9632317971931192  0.1789795800449010  0.0731091486375466   T   T   T
  0.4388297327774150  0.0344267197897039  0.6688314323170425   T   T   T
  0.2872393023672949  0.1264738327942036  0.3628342089447456   T   T   T
  0.5631733802504328  0.9756959915848424  0.3258179237156648   T   T   T
  0.4887252672528746  0.5279107622254647  0.5362096624730375   T   T   T
  0.6188926955667930  0.4743022256118898  0.8833998259551233   T   T   T
  0.2923311755359780  0.5508170094953257  0.8603457239049872   T   T   T
  0.9646034423914014  0.6800032900203864  0.1884136474746278   T   T   T
  0.9092365712835906  0.2936666656672346  0.5878523951465887   T   T   T
  0.9611224060140334  0.6801458323264600  0.5800878978071881   T   T   T
  0.9286070591769435  0.2983077046438559  0.1866412324787351   T   T   T
  0.4232373418760016  0.0407421500556774  0.4673287848297996   T   T   T
  0.4768294424596399  0.5173106528039423  0.7507309724547381   T   T   T
  0.3229006758670414  0.0920312401730276  0.8113240056087777   T   T   T
  0.6414332949143209  0.5045284271937354  0.4039473515886096   T   T   T
  0.9303772590934082  0.4742396308188256  0.3892481495290349   T   T   T
  0.9791162540218452  0.9961174261289966  0.8846497405406160   T   T   T
 
  0.00000000E+00  0.00000000E+00  0.00000000E+00
  0.00000000E+00  0.00000000E+00  0.00000000E+00
  0.00000000E+00  0.00000000E+00  0.00000000E+00
  0.00000000E+00  0.00000000E+00  0.00000000E+00
  0.00000000E+00  0.00000000E+00  0.00000000E+00
  0.00000000E+00  0.00000000E+00  0.00000000E+00
  0.00000000E+00  0.00000000E+00  0.00000000E+00
  0.00000000E+00  0.00000000E+00  0.00000000E+00
  0.00000000E+00  0.00000000E+00  0.00000000E+00
  0.00000000E+00  0.00000000E+00  0.00000000E+00
  0.00000000E+00  0.00000000E+00  0.00000000E+00
  0.00000000E+00  0.00000000E+00  0.00000000E+00
  0.00000000E+00  0.00000000E+00  0.00000000E+00
  0.00000000E+00  0.00000000E+00  0.00000000E+00
  0.00000000E+00  0.00000000E+00  0.00000000E+00
  0.00000000E+00  0.00000000E+00  0.00000000E+00
  0.00000000E+00  0.00000000E+00  0.00000000E+00
  0.00000000E+00  0.00000000E+00  0.00000000E+00
  0.00000000E+00  0.00000000E+00  0.00000000E+00
  0.00000000E+00  0.00000000E+00  0.00000000E+00
  0.00000000E+00  0.00000000E+00  0.00000000E+00
  0.00000000E+00  0.00000000E+00  0.00000000E+00
  0.00000000E+00  0.00000000E+00  0.00000000E+00
  0.00000000E+00  0.00000000E+00  0.00000000E+00
  0.00000000E+00  0.00000000E+00  0.00000000E+00
  0.00000000E+00  0.00000000E+00  0.00000000E+00
  0.00000000E+00  0.00000000E+00  0.00000000E+00
  0.00000000E+00  0.00000000E+00  0.00000000E+00
  0.00000000E+00  0.00000000E+00  0.00000000E+00
  0.00000000E+00  0.00000000E+00  0.00000000E+00
  0.00000000E+00  0.00000000E+00  0.00000000E+00
  0.00000000E+00  0.00000000E+00  0.00000000E+00
  0.00000000E+00  0.00000000E+00  0.00000000E+00
  0.00000000E+00  0.00000000E+00  0.00000000E+00
  0.00000000E+00  0.00000000E+00  0.00000000E+00
