N    C    H    Hg   Pt   O    Li        
   1.00000000000000     
    18.2546524625310944   -0.1283135885638880   -0.2325944141319320
    -0.9521950880376578    8.0442838118821385    0.1654377222332640
    -2.1907621183072501    0.5992862363659237    7.3412286262521906
   N    C    H    Hg   Pt   O    Li
    12    20    40     2     2     4     1
Direct
  0.5102553544026930  0.2049014933389149  0.8161026703651134
  0.5392782181357259  0.7832402960530871  0.2065548129746326
  0.5465711043342256  0.2148406197055565  0.2723721517667630
  0.5068169005982668  0.7711128701808895  0.7343326456905284
  0.9988457996195241  0.6446283933579050  0.8132855910241480
  0.0407269790635192  0.2803343742971206  0.2696576732778201
  0.0762713563345521  0.7119967856159575  0.2881224562743261
  0.9221635285239226  0.1806769079704381  0.6505950682231065
  0.2920393192381618  0.9925732328063847  0.1289116947893826
  0.7323325935159907  1.0791587684091370  0.7907829084772792
  0.7501871027508845  0.5379992515072642  0.2184166271925309
  0.2361954804559367  0.5359112131190229  0.8198219814524420
  0.5075238929122551  0.3096636467752280  0.6945157774783981
  0.5268901910159745  0.6688110530356619  0.3072362576978497
  0.5298542966365469  0.3143317665647733  0.3487027675780749
  0.5057747935111635  0.6623677685079237  0.6458562082703954
  0.9957697690673525  0.7488626455223397  0.6896650422704621
  1.0264500096112630  0.1496614319387146  0.3455707457019722
  0.0335793562603985  0.7817232531707078  0.3405749966511261
  0.9571649840267908  0.0870097802036336  0.6102517912460876
  0.3730934851387758  0.0150013498477291  0.1580331758443594
  0.6751708090295930  1.0067626999299317  0.8697875299414616
  0.8188343627120017  0.5959398104256532  0.1737109560830697
  0.1702433783333490  0.5212179304541342  0.8755273714730392
  0.2643655706825996  0.0077792461339392  0.2869018156211500
  0.7324235949817209  0.0092296010038753  0.6215355382390444
  0.7558067427563949  0.4717326434731060  0.4081445100910907
  0.2291048028215502  0.4843216022493803  0.6386312746017537
  0.2424445417328770  0.9434546984202266 -0.0262046464550839
  0.7635300370548401  1.2361670966716398  0.8325903399576100
  0.6818084307503982  0.5469835642626408  0.0930868732310561
  0.3066657801629725  0.5978522019248806  0.9199296296718659
  0.2539060667018876  0.8837317561204626  0.3550372897599394
  0.7387064032466983  0.1111998441335991  0.5176648820952111
  0.7798443168211958  0.9299673665806302  0.6504922393088165
  0.2100092420037004  0.0650428872163914  0.2339652489759609
  0.7247529087765532  0.3472282653454772  0.4088065231863174
  0.2429508819359820  0.5917795867046175  0.5478858576919685
  0.2688125927673686  0.3888689513873514  0.6537176464257242
  0.7306614006994002  0.5541310296921078  0.4725679471669613
  0.1753022546873991  0.8529854886785897  0.6155044296231438
  0.8415222532284857  0.2152203329675877  0.3196509029405245
  0.8052573768454945  0.8786508665944889  0.3077136987983365
  0.1551406827180166  0.1300132513957922  0.8164824987046404
  0.6402077980332257  0.3607982973239543  0.6855781345953574
  0.3296168219389040  0.6851833005110173  0.3485244775471689
  0.2869388205842633  0.3685653598280776  0.3162107236632465
  0.6714699410559033  0.6361280002258785  0.6600961071903015
  0.1709542619970909  0.1947396284899120  0.7533906476567946
  0.7630301142166465  0.8832027634663275  0.2605900915870394
  0.8154338100745601  0.2021351343983987  0.2251001509621307
  0.2107086735714126  0.8390852089315040  0.5909193436341487
  0.7128798189763873  0.6486922265568628  0.7162188224527223
  0.2492138488576418  0.4053292606387078  0.2724098866423054
  0.2924032785371359  0.6757610586966549  0.2736926506909234
  0.6818704493708617  0.3444156718703773  0.7472439682720255
 -0.0318279434962868 -0.2353952546690413  0.2817094519124395
  0.8851593311739507  0.9369545331847096  0.9940066669113652
  0.8990939154046531  1.0277604761086863  0.9788974917523758
  0.2771655996156981 -0.0535936511169918 -0.1242781487461676
  0.6305386846845255  0.4974225602906366  0.1328394988508080
  0.3537458272892354  0.6090152090937641  0.8587963040447110
  0.3148079220005542  0.6315523371798150  0.0566194582495610
  0.6800960492806175  0.6020034128502798 -0.0443987804766777
  0.3068484280167773  0.0848973051061820  0.3843755641799491
  0.6773530129342727 -0.0657939277446421  0.5706810620581204
  0.8164748345088687  0.4625180628166717  0.4858622383442754
  0.1701012565494346  0.4314490436904675  0.5766430850474903
  0.4076518629460143  0.0260883923189618  0.3023707013006134
  0.6300877203849060  0.9250063416289049  0.7812488073518919
  0.8696650650803731  0.5787724712034840  0.2939890713278977
  0.1187189977761914  0.4814969381673770  0.7671072883806738
  0.5413692905535009  1.0214716200738190  0.0494416968331721
  0.8912685568793104  0.3402649553918572  0.9041853108108083
  0.5136717418382792  0.4862549548475444  0.4943227898870288
  1.0037772091788759  0.9396064572621117  0.4987753919672669
  0.4012459708528690  1.0152343873054566  0.0324412539198978
  0.6714291242720567  1.0398567186036167  1.0204641564988797
  0.8205622013609939  0.6573014329951761  1.0204229479738212
  0.1682752012595096  0.5506030103118367  1.0290145244370512
  0.0696739926449020  0.5322041747394987  0.0959236507709937
 
             NaN             NaN             NaN
             NaN             NaN             NaN
             NaN             NaN             NaN
             NaN             NaN             NaN
             NaN             NaN             NaN
             NaN             NaN             NaN
             NaN             NaN             NaN
             NaN             NaN             NaN
             NaN             NaN             NaN
             NaN             NaN             NaN
             NaN             NaN             NaN
             NaN             NaN             NaN
             NaN             NaN             NaN
             NaN             NaN             NaN
             NaN             NaN             NaN
             NaN             NaN             NaN
             NaN             NaN             NaN
             NaN             NaN             NaN
             NaN             NaN             NaN
             NaN             NaN             NaN
             NaN             NaN             NaN
             NaN             NaN             NaN
             NaN             NaN             NaN
             NaN             NaN             NaN
             NaN             NaN             NaN
             NaN             NaN             NaN
             NaN             NaN             NaN
             NaN             NaN             NaN
             NaN             NaN             NaN
             NaN             NaN             NaN
             NaN             NaN             NaN
             NaN             NaN             NaN
             NaN             NaN             NaN
             NaN             NaN             NaN
             NaN             NaN             NaN
             NaN             NaN             NaN
             NaN             NaN             NaN
             NaN             NaN             NaN
             NaN             NaN             NaN
             NaN             NaN             NaN
             NaN             NaN             NaN
             NaN             NaN             NaN
             NaN             NaN             NaN
             NaN             NaN             NaN
             NaN             NaN             NaN
             NaN             NaN             NaN
             NaN             NaN             NaN
             NaN             NaN             NaN
             NaN             NaN             NaN
             NaN             NaN             NaN
             NaN             NaN             NaN
             NaN             NaN             NaN
             NaN             NaN             NaN
             NaN             NaN             NaN
             NaN             NaN             NaN
             NaN             NaN             NaN
             NaN             NaN             NaN
             NaN             NaN             NaN
             NaN             NaN             NaN
             NaN             NaN             NaN
             NaN             NaN             NaN
             NaN             NaN             NaN
             NaN             NaN             NaN
             NaN             NaN             NaN
             NaN             NaN             NaN
             NaN             NaN             NaN
             NaN             NaN             NaN
             NaN             NaN             NaN
             NaN             NaN             NaN
             NaN             NaN             NaN
             NaN             NaN             NaN
             NaN             NaN             NaN
             NaN             NaN             NaN
             NaN             NaN             NaN
             NaN             NaN             NaN
             NaN             NaN             NaN
             NaN             NaN             NaN
             NaN             NaN             NaN
             NaN             NaN             NaN
             NaN             NaN             NaN
             NaN             NaN             NaN
