N    C    H    Pt   Ni   O    Li
   1.00000000000000     
  18.5488588970903017  -0.0106958734576179   0.5438399853809520
  -0.0002206267889566   7.2916550231738704   0.0002781579330187
  -2.1113930178254301   0.0025381657225290   6.4855742336839199
N    C    H    Pt   Ni   O    Li
12  20  40  2  2  4  1  
Direct
  0.4991910061605705  0.1967756432189545  0.8033664411437429  
  0.5029871342247457  0.8086543094703499  0.2061726638913487  
  0.5033721326875142  0.1969583633458182  0.2064242921755064  
  0.4983472585911878  0.8084789088569828  0.8029458063489184  
  0.9971041841341020  0.6988574775455283  0.7940009566454632  
  0.9994005260489760  0.3104324463081414  0.1943975002502799  
  0.9958616996396790  0.6983187015361149  0.1926237169837331  
  0.9924576781616760  0.3114708761016075  0.7896603077224091  
  0.2554680321928638  0.9993916196112640  0.2414876859639910  
  0.7507836881950030  0.9996571870932910  0.7968376776884044  
  0.7446991600826470  0.5003750899087158  0.1985052254373247  
  0.2497271950189818  0.4921011708228483  0.7671199075985565  
  0.4994556458828893  0.3183135126687366  0.6913026253358646  
  0.5028634316757037  0.6870234718434644  0.3183839654235701  
  0.5031072574460094  0.3184878230476010  0.3184175053302587  
  0.4982957887432145  0.6868292890298174  0.6908158903124262  
  0.9988513425690970  0.8212620415650307  0.6834513147097222  
  0.0009278467072675  0.1884762153807450  0.3075704303239170  
  0.9946920795639860  0.8205249858732120  0.3032767892770090  
  0.9912544307393930  0.1895204779550408  0.6763883815970158  
  0.2926312244254839  0.9910249141511510  0.1001030602270528  
  0.7017215755217965  0.0012907784228411  0.9168144669702538  
  0.7930338980077289  0.5069785438259206  0.0767621592646486  
  0.2037381228696421  0.4933147465758984  0.8954851600960350  
  0.2964847060087223  0.9885798559910070  0.4570874405656227  
  0.7205051457248611  0.9928845211492600  0.5748071899184952  
  0.7757359317590630  0.4925895591854801  0.4202107495750143  
  0.2159832069518452  0.4874374295539252  0.5455990721799731  
  0.1742965798975266  0.0221770314665166  0.1781030630957933  
  0.8263653441839964  0.0027499529180338  0.8799081038206270  
  0.6690243946169391  0.5003199702159151  0.1170866566062798  
  0.3258897406320174  0.4935487381389981  0.8422011290780002  
  0.2776029918243801  0.8702684137186031  0.5290446486050062  
  0.7417149130219244  0.1078192189063261  0.5040889510140767  
  0.7372610695535310  0.8655552896281845  0.5151484466718179  
  0.2870951805372811  0.1115597269696832  0.5391508458451499  
  0.7587265036252032  0.3654834483674497  0.4799603448907993  
  0.2344866023687578  0.6048883548800869  0.4719485686385291  
  0.2320771532486925  0.3621609457742564  0.4798667657185431  
  0.7554319049626342  0.6077851306560136  0.4923734999685102  
  0.1288452836337042  0.8154072987259801  0.6019257635891013  
  0.8612331098211539  0.1865311848882015  0.3783655895744351  
  0.8580974567592022  0.8123732643251143  0.4015259024887929  
  0.1278286441282092  0.1605141910384911  0.6109320255760615  
  0.6390407211074086  0.3086716027817921  0.6012843267087892  
  0.3638473881067031  0.6694818344411541  0.3746929745897383  
  0.3647049161985719  0.3037134444557153  0.3824340264125243  
  0.6339145642814007  0.6855624897280037  0.6072489972195184  
  0.1696958726173216  0.1662223610081239  0.6601928931299778  
  0.8242454454016979  0.8467900195283778  0.3209521959552783  
  0.8259250459661098  0.1537013916406739  0.3017274786599380  
  0.1708957658637393  0.8132718075746322  0.6467066875598672  
  0.6686212973227271  0.6519989106323875  0.6856883250368416  
  0.3309831000969433  0.3348189614460729  0.2993710160439911  
  0.3294474224572388  0.6397862520254581  0.2926510940538944  
  0.6720572061647111  0.3464437695483172  0.6822398326216234  
  0.1602451135245243  0.1691420687781001  0.1817268690860314  
  0.8618730212115634  0.0029721051773320  0.7782335705586209  
  0.8482309217871070  0.0043682798470144  0.0447752867799937  
  0.1496500594815057  0.9449426663561444  0.2811180670678497  
  0.6466477910313205  0.5047288398417740  0.9524270524906440  
  0.3591147932518071  0.4925382678976108  0.7347130834282719  
  0.3499868654263230  0.4962128786737779  0.0065165176322873  
  0.6339857817371082  0.4947203287999934  0.2197744476816228  
  0.3569993710553376  0.9740264473262810  0.4766156397960535  
  0.6591472533868933  0.9996600639938500  0.5328917168421039  
  0.8370619655670625  0.4978748914027685  0.4604306227686769  
  0.1547084473557578  0.4910563422729159  0.5116818153319143  
  0.3543246987912066  0.9826346466216120  0.1601363944253194  
  0.6423117907916414  0.9994325173957730  0.8249487360879462  
  0.8526580522898652  0.5067004583876183  0.1662110878159887  
  0.1433842006130060  0.4916586045813108  0.8109365148865478  
  0.5009387893297431  0.0027818586956855  0.0047327235445946  
  0.9961223503230300  0.5047157974179550  0.9925164802442810  
  0.5009395903519545  0.5026687026655809  0.5046746923526320  
  0.9960961212561864  0.0048907651152591  0.4927142009636547  
  0.2618166308208086  0.9913377215187110  0.9095781036428870  
  0.7218260488164977  0.0050539942400237  0.1058836966366943  
  0.7719405868544791  0.5128040410265582  0.8876264187139226  
  0.2271122667337293  0.4955485745312350  0.0843603397056881  
  0.1558605924482755  0.9853840475054516  0.8642973555674003  
