N    C    H    Co   Ni   O    Li        
   1.00000000000000     
    18.3278545667488508   -0.2593319734261890    0.3623267046765970
     0.0608159231709528    6.7954311435355166   -0.0213882311359767
    -1.2198750805196603    0.0350893827013753    7.0571305667276558
   N    C    H    Co   Ni   O    Li
    12    20    40     2     2     4     1
Direct
  0.5036664831184366  0.1968804541604529  0.8119415344765770
  0.4977794262406225  0.8066148898785810  0.1893053315683809
  0.4972608676591282  0.1969372735242534  0.1889396970088007
  0.5041639807719237  0.8065072103469944  0.8121201644335123
  0.0080552361436788  0.7124222965721582  0.8232243860407377
  0.9941940663115112  0.2966042657746596  0.1904886075686784
  0.9990700948373866  0.7075975524794350  0.1958544609287823
  0.0028776125523390  0.3011239477326793  0.8175773761366372
  0.2579837763937301  0.9868581610707674  0.0015763643244337
  0.7429281409648814  0.0097792038019119  0.0012681164156468
  0.7546545579270703  0.5102880901675160  0.0050274773978959
  0.2493555687640986  0.4871882015560453  0.0022249483839085
  0.5033538056812932  0.3119247831896639  0.6894231795495420
  0.4983860693236378  0.6916934277981939  0.3120210805217002
  0.4979134113883246  0.3119821024321756  0.3115451437319004
  0.5037770223635305  0.6914649553463725  0.6896261296533341
  0.0065324276736904  0.8208133427906721  0.6940624933400886
  0.9955147437375933  0.1878419795172596  0.3192254395214014
  0.9992761359911936  0.8176485820903185  0.3231422125612633
  0.0025800805822913  0.1908408954855531  0.6905049046055923
  0.3335422398890454  0.9909865092529487  0.0462918066583693
  0.6674392460009601  0.0075800426395903  0.9553604363423301
  0.8299575814872713  0.5120805832762818  0.0534484888528298
  0.1738819628904739  0.4891874030293570  0.9570265659266132
  0.2131165639976533  0.9827943376029435  0.1540338389251131
  0.7882138943260826  0.0131990078788853  0.8497982383235572
  0.7079919159736753  0.5072130939644436  0.1545402514229976
  0.2948563216590903  0.4878690359383895  0.8501977918726166
  0.2234996216522581  0.9880759503935906  0.8187250982117462
  0.7769905022616765  0.0079553559903108  0.1844969226927750
  0.7209109715634655  0.5114299952085329  0.8218277871344246
  0.2842433302761994  0.4856041481760891  0.1843473284408660
  0.1778224098430429  0.8511102045883800  0.1412871217351031
  0.8235805030624109  0.1447813627803992  0.8629802738255151
  0.8220637591483093  0.8799447533529086  0.8558925623497957
  0.1792731283370870  0.1160234256951750  0.1488316839886326
  0.6730276135710839  0.3751304930857001  0.1408671625362157
  0.3299028420575769  0.6197876337358286  0.8608879515340503
  0.3299769210130289  0.3571010739921772  0.8608517948549350
  0.6727671954012470  0.6377992734499643  0.1436151439769984
  0.1536544364271814  0.6708560102383685  0.4374843463975667
  0.8475272752859451  0.3216398573765712  0.5652099876194370
  0.8494290799948530  0.6931248494374861  0.5709996044634729
  0.1547477457562790  0.3033701985381505  0.4339849294591123
  0.6485063789496983  0.1960928643900839  0.4428906235604350
  0.3521713080902089  0.8015345061096265  0.5610075271624774
  0.3534855669119129  0.1726627715152428  0.5614093701124634
  0.6480703206136199  0.8208274044534917  0.4428751292852467
  0.1723217903215819  0.2506397710103824  0.5215108504477399
  0.8310566170065588  0.7438053431324378  0.4831267965471170
  0.8270519286521374  0.2718236085402676  0.4790541419984360
  0.1719486981844547  0.7217733173836169  0.5255758630710879
  0.6717162792156781  0.7766187716195165  0.5271747045527734
  0.3308386339755943  0.2174901590705919  0.4758684720356348
  0.3297875279003357  0.7511872591746165  0.4778723965671264
  0.6712953870771475  0.2451059926058550  0.5262036214483903
  0.2577379776229429  0.9920666663677524  0.7080016093618274
  0.7424688071470624  0.0039413423164661  0.2946091461405593
  0.8367534799093833  0.0106249952851269  0.2115425709676014
  0.1637329449798702  0.9838058697300742  0.7925606199600412
  0.6610895274081894  0.5103075478532855  0.7948222342425603
  0.3440779226700547  0.4842678911969604  0.2088868817405158
  0.2504624480082537  0.4853880516660993  0.2961039968404793
  0.7555070732397065  0.5131498436647398  0.7118643251970865
  0.2495141840168835  0.9782596002108139  0.2898737677748454
  0.7521575142494233  0.0176512602235575  0.7134592633872968
  0.7431685227368547  0.5063838023472603  0.2922125306777955
  0.2588029107801277  0.4874321832085757  0.7137904800013766
  0.3542286917105500  0.9885609854863346  0.1987792489670248
  0.6470654873523696  0.0095538490415398  0.8027328548848095
  0.8491095189757228  0.5098994591236889  0.2066670052832710
  0.1539514553280522  0.4901328996482178  0.8040721857726085
  0.5007233621896386  0.0016885142146643  0.0005450770634748
  0.0007043856180109  0.5042184362783708  0.0065689458001428
  0.5009202929055701  0.5017414820709439  0.5006357012373270
  0.0009428686063886  0.0042386224211318  0.5067256605377809
  0.3747495884094125  0.9968296751087109  0.9221578390162567
  0.6259482490500881  0.0038014400407384  0.0789509696354376
  0.8731128625422360  0.5155185363636787  0.9324036248623154
  0.1314752216903892  0.4900258445073227  0.0795813232901637
  0.0010755195727730  0.9996268902169291  0.0069201258688225
 
             NaN             NaN             NaN
             NaN             NaN             NaN
             NaN             NaN             NaN
             NaN             NaN             NaN
             NaN             NaN             NaN
             NaN             NaN             NaN
             NaN             NaN             NaN
             NaN             NaN             NaN
             NaN             NaN             NaN
             NaN             NaN             NaN
             NaN             NaN             NaN
             NaN             NaN             NaN
             NaN             NaN             NaN
             NaN             NaN             NaN
             NaN             NaN             NaN
             NaN             NaN             NaN
             NaN             NaN             NaN
             NaN             NaN             NaN
             NaN             NaN             NaN
             NaN             NaN             NaN
             NaN             NaN             NaN
             NaN             NaN             NaN
             NaN             NaN             NaN
             NaN             NaN             NaN
             NaN             NaN             NaN
             NaN             NaN             NaN
             NaN             NaN             NaN
             NaN             NaN             NaN
             NaN             NaN             NaN
             NaN             NaN             NaN
             NaN             NaN             NaN
             NaN             NaN             NaN
             NaN             NaN             NaN
             NaN             NaN             NaN
             NaN             NaN             NaN
             NaN             NaN             NaN
             NaN             NaN             NaN
             NaN             NaN             NaN
             NaN             NaN             NaN
             NaN             NaN             NaN
             NaN             NaN             NaN
             NaN             NaN             NaN
             NaN             NaN             NaN
             NaN             NaN             NaN
             NaN             NaN             NaN
             NaN             NaN             NaN
             NaN             NaN             NaN
             NaN             NaN             NaN
             NaN             NaN             NaN
             NaN             NaN             NaN
             NaN             NaN             NaN
             NaN             NaN             NaN
             NaN             NaN             NaN
             NaN             NaN             NaN
             NaN             NaN             NaN
             NaN             NaN             NaN
             NaN             NaN             NaN
             NaN             NaN             NaN
             NaN             NaN             NaN
             NaN             NaN             NaN
             NaN             NaN             NaN
             NaN             NaN             NaN
             NaN             NaN             NaN
             NaN             NaN             NaN
             NaN             NaN             NaN
             NaN             NaN             NaN
             NaN             NaN             NaN
             NaN             NaN             NaN
             NaN             NaN             NaN
             NaN             NaN             NaN
             NaN             NaN             NaN
             NaN             NaN             NaN
             NaN             NaN             NaN
             NaN             NaN             NaN
             NaN             NaN             NaN
             NaN             NaN             NaN
             NaN             NaN             NaN
             NaN             NaN             NaN
             NaN             NaN             NaN
             NaN             NaN             NaN
             NaN             NaN             NaN
