H    Li   C    N    O    Pb   Pd        
   1.00000000000000     
     7.3409704842348411   -1.3508471947469773   -0.0074181788969263
    -0.5932608611388878    7.9311447081831439    0.1471377726953424
    -0.4250337304186144    0.0837048267537505    7.0567212323982895
   H    Li   C    N    O    Pb   Pd
    14     1    10     6     2     1     1
Selective dynamics
Direct
  0.5914351295329623  0.9112638799691425  0.6176005145842457   T   T   T
  0.1918383104869337  0.0884344125129624  0.3287136154664280   T   T   T
  0.3825157670975628  0.2768288311636452  0.3470360980074256   T   T   T
  0.2724658331793436  0.1797821333115061  0.5557280568492173   T   T   T
  0.5659753222639994  0.0974780574342247  0.1825840485103060   T   T   T
  0.3946077147135570  0.8977353063511654  0.1946655657732532   T   T   T
  0.6172950593460712 -0.0789479398407203  0.3161424910173969   T   T   T
  0.2975293062791719  0.6379627687619446  0.6566333740550898   T   T   T
  0.5685846152599610  0.3021099996426754  0.8833606207998397   T   T   T
  0.7377774462775485  0.5027298529055744  0.9289759403017777   T   T   T
  0.6831975774138972  0.4263372469113620  0.6927014361292285   T   T   T
  0.4957993362331019  0.6108512945133080  0.0889351114608786   T   T   T
  0.3194429168436596  0.4146676903161517  0.0382726182188859   T   T   T
  0.2903249012428218  0.6219182509188723  0.9496968331632988   T   T   T
  0.7329570756981696  0.6556824351990355  0.4186648817466782   T   T   T
  0.8582882383926046  0.8415421437430490  0.0371278344376689   T   T   T
  0.9527722694748029  0.1747452316918714  0.6142043506708146   T   T   T
  0.9529108713947265  0.8035146692769350  0.6606841225283835   T   T   T
  0.9066924054904684  0.1763969528357354 -0.0184934472055052   T   T   T
  0.4890560742639984 -0.0098473535038301  0.6217331498928462   T   T   T
  0.3150596910893318  0.1535002287034636  0.4170863581006924   T   T   T
  0.5083175360192117  0.9867800015644537  0.2767811178605802   T   T   T
  0.4194180503878937  0.5840429349389666  0.6459655208611977   T   T   T
  0.6260266885311053  0.4345663950439161  0.8298329160318928   T   T   T
  0.3907517574945926  0.5437695904872056  0.9828728755502980   T   T   T
  0.8181510540581359  0.7680126615674134  0.1810058979397076   T   T   T
  0.9614876966936313  0.2971835232676304  0.5136905458204734   T   T   T
 -0.0089796286260958  0.6870184549631398  0.5858972386680901   T   T   T
  0.9380455454304655  0.2818402263242581  0.0995205665841603   T   T   T
  0.4424521670725959  0.0438648351461615  0.4455143173195197   T   T   T
  0.4798252248212817  0.5262586962698905  0.8104625748488896   T   T   T
  0.4310203881960065  0.0241550880636532  0.7732185992886174   T   T   T
  0.4912133588886525  0.5808013261593440  0.4890039960157702   T   T   T
  0.0534845400868352  0.5222359632999026  0.2987546037709899   T   T   T
  0.9135347589709921  0.9927912100859886  0.8117436549309758   T   T   T
 
  0.00000000E+00  0.00000000E+00  0.00000000E+00
  0.00000000E+00  0.00000000E+00  0.00000000E+00
  0.00000000E+00  0.00000000E+00  0.00000000E+00
  0.00000000E+00  0.00000000E+00  0.00000000E+00
  0.00000000E+00  0.00000000E+00  0.00000000E+00
  0.00000000E+00  0.00000000E+00  0.00000000E+00
  0.00000000E+00  0.00000000E+00  0.00000000E+00
  0.00000000E+00  0.00000000E+00  0.00000000E+00
  0.00000000E+00  0.00000000E+00  0.00000000E+00
  0.00000000E+00  0.00000000E+00  0.00000000E+00
  0.00000000E+00  0.00000000E+00  0.00000000E+00
  0.00000000E+00  0.00000000E+00  0.00000000E+00
  0.00000000E+00  0.00000000E+00  0.00000000E+00
  0.00000000E+00  0.00000000E+00  0.00000000E+00
  0.00000000E+00  0.00000000E+00  0.00000000E+00
  0.00000000E+00  0.00000000E+00  0.00000000E+00
  0.00000000E+00  0.00000000E+00  0.00000000E+00
  0.00000000E+00  0.00000000E+00  0.00000000E+00
  0.00000000E+00  0.00000000E+00  0.00000000E+00
  0.00000000E+00  0.00000000E+00  0.00000000E+00
  0.00000000E+00  0.00000000E+00  0.00000000E+00
  0.00000000E+00  0.00000000E+00  0.00000000E+00
  0.00000000E+00  0.00000000E+00  0.00000000E+00
  0.00000000E+00  0.00000000E+00  0.00000000E+00
  0.00000000E+00  0.00000000E+00  0.00000000E+00
  0.00000000E+00  0.00000000E+00  0.00000000E+00
  0.00000000E+00  0.00000000E+00  0.00000000E+00
  0.00000000E+00  0.00000000E+00  0.00000000E+00
  0.00000000E+00  0.00000000E+00  0.00000000E+00
  0.00000000E+00  0.00000000E+00  0.00000000E+00
  0.00000000E+00  0.00000000E+00  0.00000000E+00
  0.00000000E+00  0.00000000E+00  0.00000000E+00
  0.00000000E+00  0.00000000E+00  0.00000000E+00
  0.00000000E+00  0.00000000E+00  0.00000000E+00
  0.00000000E+00  0.00000000E+00  0.00000000E+00
