N    C    H    Cr   Mn   O    Li        
   1.00000000000000     
    17.7519293425111186   -0.2550750985168260    0.7335908341953490
    -0.3189582190250004    7.3072095197033722   -0.0477414802424043
    -1.6874842824119454   -0.2849534395902836    6.8770516004393913
   N    C    H    Cr   Mn   O    Li
    12    20    40     2     2     4     1
Direct
  0.4768443634678768  0.1872851442599825  0.7875352783269729
  0.5089914039406969  0.8060118804401224  0.1979400359318196
  0.5125004324184341  0.1931717454157761  0.1937699818743572
  0.4741445333915896  0.8002087302436115  0.7915700408230913
  0.9958532729415860  0.7084271586982640  0.7911416610558726
  0.0135767113152791  0.3230447861095389  0.1992037408148420
  0.0312795312285063  0.7210755631738321  0.1934690789998818
  0.9796811159118153  0.3121184889585493  0.7899664519481548
  0.2844053862751908 -0.0404001081900146  0.1800978009367985
  0.7080225974612000  0.9946785449474669  0.8231020860943087
  0.7874568954253178  0.5211074128229704  0.1559502676346277
  0.2186261582935684  0.4938115340301130  0.8319201297368820
  0.4806627274049703  0.3034775332819742  0.6778302773500272
  0.5063088799883739  0.6897343376087099  0.3081138589528075
  0.5094591434413760  0.3119780083544005  0.3086249814508348
  0.4784793307395372  0.6813218783130292  0.6780401706236168
  0.0009289855646680  0.8254126084299506  0.6806417697107489
  0.0122852657797434  0.2048568291966722  0.3093863238208488
  0.0246707012287130  0.8361383003939735  0.3114526314086353
  0.9871330801452858  0.1934367804770120  0.6781727272736033
  0.3585768833882074  0.9893244975148597  0.1648780339970350
  0.6313345029843517  0.9895154589455282  0.8246743379815603
  0.8645070716235070  0.5355394710052409  0.1598244887386788
  0.1439083859625073  0.4684115474631256  0.8345021268858901
  0.2661084242075276 -0.0012328681677049  0.3704210497513544
  0.7361072238986391  0.9766048063660160  0.6433415327607062
  0.7615502560228894  0.5426112206489893  0.3388946659727691
  0.2439801563247067  0.4270942040459151  0.6583559809656501
  0.2261267134830349  0.8732140001406291  0.0341190590365983
  0.7602641229647190  0.0123468515717158 -0.0179447998104511
  0.7331014614192424  0.4876342741444636  0.9890688082925254
  0.2711409483855731  0.5999206439403206  0.9806312134156502
  0.2300118575835108  0.8835806747720364  0.4054628940201694
  0.7753248462721859  0.0955914903191763  0.6310100155009842
  0.7698708895998819  0.8552968109079701  0.6504651855154439
  0.2327670624657000  0.1204588731596269  0.3673016780704142
  0.7241246775773753  0.4228022870643642  0.3589905527903078
  0.2715666220320076  0.5401310350832375  0.5935378058994677
  0.2861324889814555  0.3237257347308594  0.6961265625181942
  0.7268355709014497  0.6617688349931050  0.3330891556202571
  0.1644065681393045  0.7655082378333785  0.5985838576113163
  0.8609226191327440  0.2167799851769753  0.4275258750973641
  0.8920583823266843  0.8863049172673162  0.4386431420160520
  0.1070997196661131  0.0530764105937171  0.5295471709203278
  0.6365933288280727  0.2977444076007976  0.5457637965279094
  0.3551451941860933  0.6788055033564615  0.4627381475969869
  0.3643492396933898  0.3295540986372482  0.3710102397712565
  0.6265910049038961  0.6469780948990029  0.5763091185364592
  0.0995795626115350  0.0623982922980984  0.6444386413428662
  0.8636729386374900  0.9177801797844481  0.3540234069811528
  0.8217806397334304  0.2153439300148682  0.3618092959109681
  0.1922102566600681  0.7984632096669324  0.6905618504505630
  0.6515640320258304  0.6350117723391452  0.6747479006567096
  0.3348923658843250  0.3875133730372441  0.3142835859275053
  0.3308690615170324  0.6944116847380619  0.3657778853442908
  0.6718481875934760  0.3072008534813445  0.6257782082291486
  0.2076271969200068  0.0816731665262242  0.9246290276173434
  0.7731626365530649 -0.0040629717573152  0.1219696868784824
  0.8126144024701508  0.0613012269772401  0.0469184553615617
  0.1792505059377933  0.1095203290330855  0.0096994996256718
  0.6723026085997268  0.4730023614967919  0.9961843791194144
  0.2635507615906280  0.5679462461484694  0.1235440049784376
  0.3307847429004518  0.5869506884089752  0.9628719294786492
  0.7529040753405556  0.4730493528785845  0.8540071103622586
  0.3192198327891586  0.0176594362010766  0.4828871245789253
  0.6868824094656886  0.9655164949836577  0.5215742296699072
  0.8108879701940462  0.5573019458222603  0.4610172823823445
  0.1938077521706038  0.3700002071750436  0.5500698779900295
  0.4004303116230269  1.0111754415473282  0.3030839352256955
  0.5932532002385061  0.9743007501031493  0.6809353737597610
  0.9032962426366176  0.5560530476132514  0.3023506842547383
  0.1048908078335756  0.4053972450814252  0.7042967200290925
  0.4924474111804109  0.9964300910342833  0.9924445623683179
  0.0015103462709658  0.5112695584374013  0.9927757977179744
  0.4938975782621394  0.4964978929044182  0.4933117257383886
  0.0105231663480512  0.0143805561871773  0.4988666823451491
  0.3795958161067606  0.9818646018746117  1.0042981071584456
  0.6075528584281391  1.0057280213512227  0.9806030271910463
  0.8896191949188987  0.5223085775095090  0.0037043997442336
  0.1168565724873161  0.5197454883048814  0.9815339584292752
  0.1118898472559792  0.7925931628013269  0.0143990822828184
 
             NaN             NaN             NaN
             NaN             NaN             NaN
             NaN             NaN             NaN
             NaN             NaN             NaN
             NaN             NaN             NaN
             NaN             NaN             NaN
             NaN             NaN             NaN
             NaN             NaN             NaN
             NaN             NaN             NaN
             NaN             NaN             NaN
             NaN             NaN             NaN
             NaN             NaN             NaN
             NaN             NaN             NaN
             NaN             NaN             NaN
             NaN             NaN             NaN
             NaN             NaN             NaN
             NaN             NaN             NaN
             NaN             NaN             NaN
             NaN             NaN             NaN
             NaN             NaN             NaN
             NaN             NaN             NaN
             NaN             NaN             NaN
             NaN             NaN             NaN
             NaN             NaN             NaN
             NaN             NaN             NaN
             NaN             NaN             NaN
             NaN             NaN             NaN
             NaN             NaN             NaN
             NaN             NaN             NaN
             NaN             NaN             NaN
             NaN             NaN             NaN
             NaN             NaN             NaN
             NaN             NaN             NaN
             NaN             NaN             NaN
             NaN             NaN             NaN
             NaN             NaN             NaN
             NaN             NaN             NaN
             NaN             NaN             NaN
             NaN             NaN             NaN
             NaN             NaN             NaN
             NaN             NaN             NaN
             NaN             NaN             NaN
             NaN             NaN             NaN
             NaN             NaN             NaN
             NaN             NaN             NaN
             NaN             NaN             NaN
             NaN             NaN             NaN
             NaN             NaN             NaN
             NaN             NaN             NaN
             NaN             NaN             NaN
             NaN             NaN             NaN
             NaN             NaN             NaN
             NaN             NaN             NaN
             NaN             NaN             NaN
             NaN             NaN             NaN
             NaN             NaN             NaN
             NaN             NaN             NaN
             NaN             NaN             NaN
             NaN             NaN             NaN
             NaN             NaN             NaN
             NaN             NaN             NaN
             NaN             NaN             NaN
             NaN             NaN             NaN
             NaN             NaN             NaN
             NaN             NaN             NaN
             NaN             NaN             NaN
             NaN             NaN             NaN
             NaN             NaN             NaN
             NaN             NaN             NaN
             NaN             NaN             NaN
             NaN             NaN             NaN
             NaN             NaN             NaN
             NaN             NaN             NaN
             NaN             NaN             NaN
             NaN             NaN             NaN
             NaN             NaN             NaN
             NaN             NaN             NaN
             NaN             NaN             NaN
             NaN             NaN             NaN
             NaN             NaN             NaN
             NaN             NaN             NaN
