N    C    H    Fe   Ni   O    Li        
   1.00000000000000     
    17.1955902681939961    0.2049939370140200    0.2075262777896010
    -0.6407308815574896    6.8041063602507439    0.0132083942022469
    -0.9463553390461202   -0.0996805773240821    7.0385580099781366
   N    C    H    Fe   Ni   O    Li
    12    20    40     2     2     4     1
Direct
  0.5022251913704255  0.1612747164519533  0.8075482213042959
  0.4941016055316007  0.7711222573988168  0.1902032566811871
  0.4981597688316677  0.1635676895530726  0.1887929737573951
  0.4989041475806900  0.7704104622817316  0.8078304264739523
  0.9993247323988511  0.7421878799771021  0.7853419530967012
  0.0035600196095371  0.3524749039946741  0.1698120892329729
  0.9919872702683407  0.7404258660870281  0.1692520713990093
  0.0094838827358794  0.3523176652423594  0.7916038181740315
  0.2580360595397572  0.9576045680244900  0.0540773207875446
  0.7399018732245790  0.9941313940137381  0.9789856705571512
  0.7570786668538266  0.4941454628848417  0.9894905600701708
  0.2473203057539334  0.5346092637199192  0.0002628403380445
  0.5028199058566559  0.2782137008103621  0.6863563056291558
  0.4943750225095602  0.6548740964341314  0.3120353681940955
  0.4983268127306978  0.2797253748166434  0.3107920058674917
  0.4996199026588002  0.6544410409537201  0.6862242745567646
  0.9997106366044982  0.8593283764201832  0.6634008785036353
  0.0024478980983473  0.2369057426953620  0.2921715889337811
  0.9939191998584860  0.8583924797562470  0.2914227233722639
  0.0070450355071700  0.2367629447449866  0.6681809049208134
  0.3374890468188435  0.9813448836320631  0.0772300424789261
  0.6608503859583961  0.9833987943171845  0.9267070022616669
  0.8357804943704121  0.5023145932505448  0.0434920750841603
  0.1786639735990897  0.6417065465927689  0.9228203029547880
  0.2150938206828718  0.0216303827572182  0.2044129072052860
  0.7928655076390699  0.9991762487208221  0.8319216136777331
  0.7032494342281216  0.4888432245542160  0.1355741847997839
  0.3034908134830432  0.4927724533322855  0.8704057112576963
  0.2132894594950220  0.8638354252215085  0.8868515371978735
  0.7728793837800226  0.0021018241394827  0.1638779619628162
  0.7244969048713024  0.4878846929903873  0.8048032557260357
  0.2667918342913556  0.5197163550336888  0.1871543645938128
  0.1792186989965582  0.8976169562944329  0.2565715303537550
  0.8314028125264558  0.1356590025569917  0.8448627299226854
  0.8287445508701495  0.8733596049584403  0.8479799871832455
  0.1783437482700901  0.1412012423056598  0.1550828240223565
  0.6648386176514078  0.3522845098464615  0.1219251105074338
  0.3530379394806447  0.6057837803726978  0.8796081119611859
  0.3267434481798811  0.3504360531640042  0.9037326277185102
  0.6670059730308709  0.6137750518307281  0.1177844701901855
  0.1243271009077111  0.6329418078979038  0.4366561133677301
  0.8514856824220058  0.3166446334271838  0.5323727973997447
  0.8467031245680263  0.6985234254154424  0.5276048712053941
  0.1513958643812577  0.2479830965163638  0.5276039102817358
  0.6452280653579774  0.1712871564646360  0.4428478205307206
  0.3505133183858048  0.8392443126170892  0.5737062631303488
  0.3586953700669255  0.2377681183316826  0.5579716829483823
  0.6457033982119954  0.7825329938043654  0.4442975420060097
  0.1926827066432842  0.2331892011253939  0.5700063845394732
  0.8231665665200398  0.7412849207239710  0.4438111771312074
  0.8234907082251015  0.2750041394396038  0.4500481229583698
  0.1541934635125133  0.6838227710077981  0.5099370641617229
  0.6785484993361238  0.7527089243068170  0.5151987388358443
  0.3191439182882264  0.2658748677196697  0.5144507473294919
  0.3243559439846574  0.7966838194377079  0.4886356155515383
  0.6778297128487142  0.2089692271183466  0.5170954140518556
  0.1655165750211523  0.9576323903977174  0.8347507503923420
  0.8364077108167555  0.0126312927205026  0.1916839985018234
  0.7341044574828546  0.9982731665986949  0.2731897074858901
  0.2517359709882810  0.8656359134761350  0.7741737533005226
  0.6609689046581591  0.4791007065045726  0.7757418256291205
  0.3252961688599397  0.4788945575058217  0.2393049091744173
  0.2238687875895519  0.5520565387606893  0.2801727420494194
  0.7634127950674120  0.4903118819602998  0.6959111794726379
  0.2568230390613694  0.0802812369470096  0.3232798214774066
  0.7582421524399928  0.9921874778277864  0.6921798189165737
  0.7372490066517897  0.4964918143696688  0.2760319028827716
  0.2735424010655271  0.4875152361140357  0.7252730263029042
  0.3639037247751136  0.0358104396800313  0.2178864287296655
  0.6412705194698268  0.9774306914779526  0.7744126389832338
  0.8543771141581877  0.5084653109239474  0.1961254795104513
  0.1581723161187969  0.5742404943638683  0.7822635938362432
  0.4985762857519802  0.9663110051200348  0.9984401232529170
  0.0008402268533713  0.5458037048451785  0.9789588317582081
  0.4989853913709393  0.4667013045986421  0.4989505793153689
  0.0005704711160062  0.0476128733258428  0.4784830538896667
  0.3792212226231955  0.9446172857071331  0.9506097661249120
  0.6139649556080727  0.9807686763228213  0.0521946815775403
  0.8840618140632255  0.5027751670431501  0.9195489052669711
  0.1213409482302810  0.6344449753306590  0.0414714471202004
  0.0748365996118845  0.8704667913717613  0.0142622564145318
 
             NaN             NaN             NaN
             NaN             NaN             NaN
             NaN             NaN             NaN
             NaN             NaN             NaN
             NaN             NaN             NaN
             NaN             NaN             NaN
             NaN             NaN             NaN
             NaN             NaN             NaN
             NaN             NaN             NaN
             NaN             NaN             NaN
             NaN             NaN             NaN
             NaN             NaN             NaN
             NaN             NaN             NaN
             NaN             NaN             NaN
             NaN             NaN             NaN
             NaN             NaN             NaN
             NaN             NaN             NaN
             NaN             NaN             NaN
             NaN             NaN             NaN
             NaN             NaN             NaN
             NaN             NaN             NaN
             NaN             NaN             NaN
             NaN             NaN             NaN
             NaN             NaN             NaN
             NaN             NaN             NaN
             NaN             NaN             NaN
             NaN             NaN             NaN
             NaN             NaN             NaN
             NaN             NaN             NaN
             NaN             NaN             NaN
             NaN             NaN             NaN
             NaN             NaN             NaN
             NaN             NaN             NaN
             NaN             NaN             NaN
             NaN             NaN             NaN
             NaN             NaN             NaN
             NaN             NaN             NaN
             NaN             NaN             NaN
             NaN             NaN             NaN
             NaN             NaN             NaN
             NaN             NaN             NaN
             NaN             NaN             NaN
             NaN             NaN             NaN
             NaN             NaN             NaN
             NaN             NaN             NaN
             NaN             NaN             NaN
             NaN             NaN             NaN
             NaN             NaN             NaN
             NaN             NaN             NaN
             NaN             NaN             NaN
             NaN             NaN             NaN
             NaN             NaN             NaN
             NaN             NaN             NaN
             NaN             NaN             NaN
             NaN             NaN             NaN
             NaN             NaN             NaN
             NaN             NaN             NaN
             NaN             NaN             NaN
             NaN             NaN             NaN
             NaN             NaN             NaN
             NaN             NaN             NaN
             NaN             NaN             NaN
             NaN             NaN             NaN
             NaN             NaN             NaN
             NaN             NaN             NaN
             NaN             NaN             NaN
             NaN             NaN             NaN
             NaN             NaN             NaN
             NaN             NaN             NaN
             NaN             NaN             NaN
             NaN             NaN             NaN
             NaN             NaN             NaN
             NaN             NaN             NaN
             NaN             NaN             NaN
             NaN             NaN             NaN
             NaN             NaN             NaN
             NaN             NaN             NaN
             NaN             NaN             NaN
             NaN             NaN             NaN
             NaN             NaN             NaN
             NaN             NaN             NaN
