N    C    H    Pb   Pt   O    Li
   1.00000000000000     
  15.2511406933094005   0.2600649833877160  -1.3908256187645001
   0.1237853099739970   7.4346791036352400   0.0506591190282248
  -2.4755519845433600   0.0172254848976737   7.2657426935273701
N    C    H    Pb   Pt   O    Li
12  20  40  2  2  4  1  
Direct
  0.4636949941932991  0.2206686807072591  0.7667237395521714  
  0.5460544810068219  0.7804756421436891  0.2381707879817311  
  0.5392364620655692  0.2132092099163387  0.2361367205155872  
  0.4652674744721965  0.7880429558149094  0.7660180296369956  
  0.9635946180367416  0.7626674271410465  0.8284204323126562  
  0.0616036569918439  0.2446086287162502  0.2811140298625253  
  0.0469053358439012  0.6821387131418224  0.2611519470665798  
  0.9393476084962828  0.2959995026217430  0.6891616728460711  
  0.2699696540168506  0.0048699320220614  0.1900796334717466  
  0.7312055373916853  0.0016151506368546  0.8043696004456433  
  0.7598144581631467  0.5034517717922015  0.2119098105289700  
  0.2392091405330115  0.5041333257888817  0.7931554373734951  
  0.4792557429554619  0.3218761481308238  0.6648024992304955  
  0.5249406308287640  0.6816340126957426  0.3346961444524698  
  0.5214317474387684  0.3181988862381655  0.3333400788196803  
  0.4803329343747816  0.6851450845205723  0.6638070857768354  
  0.9719023177244860  0.8134197162448620  0.6893476713514238  
  0.0295567370724795  0.1361979383068523  0.3486665429046543  
  0.0177066884749088  0.7699920635819163  0.3548331136810248  
  0.9707751096137180  0.1720161419967929  0.6363807920231548  
  0.3526507300188871  0.9950917355209160  0.1654098103026777  
  0.6504202427294891  0.9983289928931004  0.8317722508066092  
  0.8413905874214302  0.5022380198152033  0.1872774920577405  
  0.1581921488951948  0.5149695969337575  0.8187994243686534  
  0.2714627788217196  0.0109158778013716  0.3826272430332476  
  0.7303055320545397  0.0012042821449471  0.6126506485260187  
  0.7616407944879768  0.5056583964085444  0.4028868480401933  
  0.2383195534341503  0.4959547246126771  0.6029865531423444  
  0.1820382036565140  0.0101541297323088  0.0320907352897934  
  0.8217029353647020  0.0022751512261239  0.9587259465909678  
  0.6707085700608645  0.5021486148736171  0.0550430198962677  
  0.3290907568875242  0.5026664420590679  0.9498047615821388  
  0.2383902947639784  0.8904237583657860  0.4089608803837676  
  0.7666864558030841  0.1194636883867027  0.5928000426255873  
  0.7679427901384545  0.8787238605669005  0.5959947294682543  
  0.2315029542065949  0.1311013626236564  0.3963433929813170  
  0.7279040001326995  0.3859361087208948  0.4272688718697459  
  0.2726539763422645  0.6142484306320550  0.5766203834655240  
  0.2775894265105279  0.3741401181377340  0.5914534326138833  
  0.7228548199880240  0.6263902675727668  0.4188163957156513  
  0.1699770037701116  0.8348656350635986  0.6372182946104613  
  0.8254126113376925  0.1687403111969230  0.3427816802041292  
  0.8272835165313071  0.8310100370215034  0.3520529835125690  
  0.1718408846684903  0.1773941820861118  0.6475408401221551  
  0.6714835366271561  0.3422442651495586  0.6670214383518228  
  0.3293347243706859  0.6632469824612645  0.3420452489478142  
  0.3308457984800499  0.3392094213356082  0.3422872966938744  
  0.6709883233248306  0.6674205512165546  0.6631838411924311  
  0.2113104421157133  0.1514766660158594  0.7421867762961764  
  0.7820535632673972  0.8504131392640951  0.2641099416744134  
  0.7817102816770891  0.1493373111672921  0.2548348341080495  
  0.2193718557427243  0.8523179932812494  0.7103127534239621  
  0.7176436533559829  0.6514710156189365  0.7483889861056993  
  0.2854158416668810  0.3534195581992108  0.2541051881292832  
  0.2837852362639194  0.6522439896572582  0.2548186502937774  
  0.7192002266679146  0.3504529996667982  0.7500321369504650  
  0.1312333297225218  0.1261242657624836  0.0203771562310439  
  0.8559453338267110  0.8731929351931069  0.0224373829383057  
  0.8552773082826767  0.1311303958975227  0.0032446821391941  
  0.1756583351312611  0.9266802472678612  0.9086271469822612  
  0.6365202585303544  0.6297227924466160  0.9892859581398648  
  0.3646268935165182  0.3737375328550208  0.0068908630280479  
  0.3610661428513509  0.6305181763522391  0.0022542282692120  
  0.6369446304319557  0.3743370660988544  0.0100561851756771  
  0.3453297146270682  0.0134536718492947  0.4903569283391527  
  0.6563978893768506  0.0047919269764132  0.5053487941772662  
  0.8360094711474174  0.5046227382954028  0.5075487156921806  
  0.1643958916477944  0.4935372099297872  0.4967643345431655  
  0.4183841438659930  0.9895447333129032  0.2980499327333871  
  0.5847219523941399  0.9982597939401806  0.7014401250659539  
  0.9061908054250428  0.4991539918725535  0.3189759835983679  
  0.0925856362121967  0.5117107577107438  0.6867365570304924  
  0.5017999637866255  0.9992403663167138  0.0023930797004047  
  0.0018161221038485  0.4495570907414817  0.9989869454318960  
  0.5008680271087629  0.5019445534405769  0.4981884517215971  
  0.9942542754404022  0.9643056109507449  0.5035710350454154  
  0.3533313741113039  0.9969038860092836  0.9968511653201848  
  0.6503240446096761  0.9976263782273690  0.0004317002772268  
  0.8442169747692578  0.5013227195315229  0.0238841208673104  
  0.1551181070646267  0.5270467549553464  0.9811074902139082  
  0.0550930451256340  0.8573457300148808  0.0741715117159977  
