N    C    H    Co   Ni   O    Li
   1.00000000000000     
  18.3919199013901995   0.0798879411432039   0.2750151082324320
   0.0443956300483416   6.8333840631158802  -0.0010847596823706
  -1.2936873029190501  -0.0084716763361572   7.0512533627616998
N    C    H    Co   Ni   O    Li
12  20  40  2  2  4  1  
Direct
  0.5021834018593149  0.1987604808133963  0.8107259855294129  
  0.4977182959894836  0.8081956166515745  0.1893577939949147  
  0.4970524721100338  0.1983169982284846  0.1889287878479211  
  0.5027560354321052  0.8086064676765675  0.8110514128860814  
  0.0090472356177305  0.7375033993037377  0.8473655593017245  
  0.9961912715540980  0.2412864963596441  0.1594897113633388  
  0.9989925909681412  0.6578348877664294  0.2293685352392726  
  0.0059541514665050  0.3252904417505424  0.7782665217621023  
  0.2568705915285481  0.9994899066821064  0.9982281491327052  
  0.7430332540922699  0.0049124610143802  0.0028979542491776  
  0.7616994454182014  0.5042750674625591  0.0043572068450479  
  0.2422633860645498  0.4945112544875070  0.0018761986766157  
  0.5018759955730533  0.3138176450986235  0.6889489531989896  
  0.4980775541776767  0.6931398132246271  0.3111458629656243  
  0.4973855736941732  0.3135646911017688  0.3109828382927945  
  0.5023535189263270  0.6933544258631056  0.6889784313260316  
  0.0077346427232965  0.8352652702631971  0.7112810977836715  
  0.9970946048014639  0.1490848265990505  0.2991552983627991  
  0.9991379231487796  0.7776428960863773  0.3485537176270121  
  0.0054356694419214  0.2014053945510000  0.6641974768619968  
  0.3325255657033327  0.9994819034936115  0.0446407362773520  
  0.6673920695865451  0.0044296281751843  0.9557892128177962  
  0.8370363042991170  0.5013566162901260  0.0540990813208612  
  0.1669284040590595  0.4900567792622154  0.9540941677045012  
  0.2123677000612492  0.9934074487841814  0.1495616352131913  
  0.7879279751114721  0.0079884081327562  0.8523018859026167  
  0.7159353553730988  0.5013403443786142  0.1536954768353521  
  0.2873416318874441  0.4991116711442123  0.8510268641212317  
  0.2220771619328313  0.0047546074288234  0.8146981513659444  
  0.7774215103178869  0.0012241637724053  0.1867473510609098  
  0.7273371763256546  0.5107225267731247  0.8207350185502048  
  0.2773045888383714  0.4932600240362743  0.1849606975525128  
  0.1801868826219397  0.8582768037069255  0.1391523131432394  
  0.8241005402684192  0.1356844338824638  0.8689868243572220  
  0.8211598280585333  0.8731549129181519  0.8559753789888147  
  0.1753687329907611  0.1214489421597814  0.1398612481097312  
  0.6806057236757244  0.3721260624445517  0.1380069998195602  
  0.3210187351077098  0.6314140952204230  0.8637155679138750  
  0.3238253537613874  0.3701923345659435  0.8610498422732864  
  0.6810767903323793  0.6333229455267450  0.1451925428412270  
  0.1547633026521340  0.6907844183509434  0.4429459963000648  
  0.8532258801271122  0.2983098694373976  0.5634804247145232  
  0.8551957136276949  0.6760103358251273  0.5779698237456232  
  0.1484440554693738  0.3225856142367900  0.4225283980568939  
  0.6501044745414010  0.2048961221236235  0.4415956769117702  
  0.3496834672752938  0.8031721868493125  0.5618322569938046  
  0.3509247216760107  0.1806186946082976  0.5634111896815361  
  0.6489969660039867  0.8211591587953964  0.4393580168050216  
  0.1655673693988208  0.2730629154091334  0.5129132032434889  
  0.8358344426975066  0.7290750126229313  0.4918708117786058  
  0.8240153321499205  0.2579307010217454  0.4878897468247650  
  0.1787810587478950  0.7439044941280794  0.5215234952084761  
  0.6743845427693821  0.7766898755974516  0.5216209361742559  
  0.3271889321993864  0.2271881404221772  0.4794864268245720  
  0.3249157010533859  0.7564016579130216  0.4803954270320239  
  0.6749944379880344  0.2517156723221241  0.5227987199600891  
  0.2561376695119089  0.0099216144016253  0.7051752121198134  
  0.7431901772171059  0.9966156712227866  0.2959135959400864  
  0.8371264317179219  0.0054070371458805  0.2156751054041316  
  0.1623090824890169  0.0062096351526601  0.7869439461937993  
  0.6675516405401092  0.5140633263387688  0.7929117420442083  
  0.3370849061202501  0.4952967849838856  0.2114913971737361  
  0.2436894013821199  0.4892870251012404  0.2954344216344784  
  0.7614932777158941  0.5116873524863570  0.7113365413863600  
  0.2489399406128352  0.9958196175113484  0.2864040349941829  
  0.7515456334723783  0.0174769982139815  0.7154243023391700  
  0.7517800813803958  0.4966998058433270  0.2915777501522348  
  0.2510325310031921  0.4990244708387401  0.7138001262070137  
  0.3535093348037391  0.9949957587852648  0.1975449305059819  
  0.6465904900784555  0.0074621659593327  0.8027608498415580  
  0.8569399808224021  0.4936982872558828  0.2072945712435256  
  0.1462260846508047  0.4918742083561682  0.8011840890562038  
  0.4999255006054981  0.0034391216484709  0.0000315038438424  
  0.0024705220267666  0.4889066185957949  0.0046784503987898  
  0.4999212215421632  0.5034756403395300  0.5000290136505764  
  0.0022378917334792  0.9904569722374900  0.5052394474887101  
  0.3733782018735930  0.0042512258738779  0.9218458631680870  
  0.6263921694122251  0.0010956312865858  0.0782667835485506  
  0.8795376597931213  0.5068354074938195  0.9336750768742168  
  0.1251072875585535  0.4840487883880341  0.0762451262185039  
  0.0025270243289814  0.9251128021470708  0.0593170159653969  
