N    C    H    Hg   Cd   O    Li
   1.00000000000000     
  16.7280668345084003  -0.1005523206424730  -0.3349437679658010
  -0.0477979470157863   8.0980194003963604   0.0155889638960202
  -2.1928067643295299   0.0273465082296465   7.4439723137229397
N    C    H    Hg   Cd   O    Li
12  20  40  2  2  4  1  
Direct
  0.4556008272203961  0.1774988390134437  0.7675556060965404  
  0.5106392898103852  0.7607647252186112  0.2016445665151074  
  0.5548561777473593  0.1756010621086289  0.2483256125637347  
  0.5041913691097992  0.7782067619712769  0.7901891831720214  
  0.9832906406218124  0.7038982568468479  0.7902491939094494  
  0.0164657551183925  0.3331677831053279  0.1830620415646183  
  0.0488641463462292  0.7564069083236344  0.2107785041654748  
  0.9274957668195002  0.3095762646856091  0.7095029866994838  
  0.2794695342267531  0.9980929242525930  0.2298414502633195  
  0.7349452564844889  0.0051233325194275  0.7896322357796262  
  0.7543326402014016  0.5158146395235097  0.1918762507750269  
  0.2417403669870925  0.4913790112702172  0.7960980326222713  
  0.4505177934209132  0.2773565384630546  0.6548100858234734  
  0.4883149183373202  0.6547562447564929  0.2805256299787704  
  0.5562414359125860  0.2753392713382516  0.3582017662299498  
  0.5194560600627401  0.6668567146775448  0.7102322963631994  
  0.0016402824870810  0.8141303720152028  0.7102991787081652  
  0.0287270214041146  0.2364181805090924  0.3011281047007705  
  0.0130822079560628  0.8335357497802054  0.2908777628060213  
  0.9378738004879204  0.2033062255164737  0.6171292109236579  
  0.3524044955689095  0.0003270257049772  0.1940161915945328  
  0.6611776148737949  0.0138094067798756  0.8330973994603449  
  0.8299267961169386  0.5106033866719926  0.1589563564966833  
  0.1660262388659072  0.5098230179345341  0.8260897632562658  
  0.2789822642287730  0.9892376574454780  0.4160024905204417  
  0.7316600567715189  0.0113424316338642  0.5994218799980640  
  0.7522352248640405  0.5045186742475775  0.3788903714377700  
  0.2430333615206749  0.4486689753247998  0.6138481111801800  
  0.1986695199636328  0.9936645632810900  0.0951449995633396  
  0.8111054106726094  0.9909487039573800  0.9167124576567428  
  0.6805728753974259  0.5327173552844973  0.0591091105193758  
  0.3160567171791711  0.5209923708674699  0.9244393431388136  
  0.2439658589078251  0.8786612545447792  0.4355529442031321  
  0.7638815886327014  0.1229250058161760  0.5730563385067752  
  0.7626185187212742  0.9025838018807100  0.5669179214399356  
  0.2467753888354006  0.0976158694851516  0.4475176256009125  
  0.7147391525181266  0.3963208784923612  0.3934938341888500  
  0.2737676919187457  0.5489300616412831  0.5610650652913541  
  0.2780196720015717  0.3343067428889465  0.6181487535851519  
  0.7234379175126825  0.6159362350330057  0.4117820456322358  
  0.2144280773265769  0.8262437539381745  0.6950206794413322  
  0.7990778998839952  0.1824112733208680  0.2957257969561614  
  0.8268421281690670  0.8243620381268167  0.3328608575396463  
  0.1371362043700077  0.1555343012760476  0.6338659659937246  
  0.6897242437233089  0.3376011249813621  0.6802542164719251  
  0.3271939773099996  0.6885647760713612  0.3224180437337671  
  0.2966759264664509  0.3205838905292434  0.2813657330402829  
  0.6793170085582783  0.6869873672311055  0.6650522651259367  
  0.1465306211989569  0.1183310164112434  0.7273508925573996  
  0.7867669522767247  0.8660725598868918  0.2817180611212629  
  0.7600409114006381  0.1519988821297271  0.2256324724550078  
  0.2474835443821425  0.8579221854848054  0.7775005725657912  
  0.7231036824309622  0.6604774525604000  0.7144310852953381  
  0.2530615777918611  0.3440633075350291  0.2261791383752685  
  0.2929584879128022  0.6248398343512007  0.3102498503723721  
  0.7291221046043845  0.3616616721607458  0.7528299578835389  
  0.2066472000736612  0.0388446720769185  0.9675883260419400  
  0.8128605067762972  0.9844288322684220  0.0570271724438681  
  0.8664945454419929  0.9852957535879130  0.8720876059537206  
  0.1570818691399839  0.0778684852005278  0.1389730176273467  
  0.6821308225578799  0.5445861079372959  0.9213470826937710  
  0.3734599739005713  0.5039953348461023  0.8893722752339673  
  0.3151085777069070  0.5611953723552746  0.0564408860166587  
  0.6231735258550710  0.5362367011787005  0.0965805160893519  
  0.3428019100144167  0.9857377323854860  0.5094835633928372  
  0.6663712362846121  0.0131783081666278  0.5135695691316504  
  0.8160520634387860  0.4925141499547052  0.4707813919347283  
  0.1787712700778016  0.4330059767870453  0.5245797164352850  
  0.4080541832066548  0.9919179881832000  0.3131422489066717  
  0.6054949219866852  0.0224575294100605  0.7136136971379224  
  0.8836837709600113  0.4948811268137034  0.2811952148623239  
  0.1122751719840643  0.4808808253828941  0.7072295466906311  
  0.4956869595684439  0.9874289060402640  0.0044914273240990  
  0.9760255089647080  0.5003395649248392  0.9627544816213280  
  0.5019637325682537  0.4666154810051391  0.5016317002980741  
  0.9940114659622050  0.0173924565875011  0.4822185273231431  
  0.3583133750019046  0.0075499277517460  0.0335854284498547  
  0.6574014347409036  0.0110777592479904  0.9911883774911490  
  0.8369753624220768  0.5214741582212772  0.0020337132556271  
  0.1576287326019854  0.5551181327979831  0.9743856382997920  
  0.1362869274950069  0.7606299316196207  0.0733805536656111  
