N    C    H    V    Mg   O    Li        
   1.00000000000000     
    17.8801100912873281   -0.3307621008171830    0.8621670188641520
    -0.4188060576718812    7.7197178288056563   -0.0743636058883975
    -0.6450906552082813    0.1229151866334526    7.4224576915741585
   N    C    H    V    Mg   O    Li
    12    20    40     2     2     4     1
Direct
  0.5028378798885371  0.1476286065967279  0.8092161721316916
  0.5149753121578208  0.8096195158499538  0.2219708438686032
  0.5145675710173955  0.1768134648995045  0.1892981649446692
  0.4902169299569636  0.7760713423801650  0.8513273763811352
  0.0003291300235819  0.7337852198018278  0.8063101291071098
  0.0153249508521892  0.3465631908459765  0.1797058525400440
  0.0071922506614183  0.7246049237213222  0.1799140466834974
  0.9945451670946351  0.3565190084050125  0.7847145597461824
  0.2858047462649496 -0.0875893038734089  0.1947025291980681
  0.7405028504406769  0.9791396462504858  0.8656810639923226
  0.7799062205495564  0.5558511802949158  0.0593561317617995
  0.2403524950897517  0.5200686051574593  0.9274884674060226
  0.5015007086631083  0.2618912975617823  0.7038566099811848
  0.5083522813748125  0.7305609437661417  0.3642524061986637
  0.5078104120228174  0.2885315472602585  0.2922562232512708
  0.4644276053228132  0.6515004800925118  0.7528502043199015
  0.0121741804867249  0.8510653973383864  0.7043279598881578
  0.0417243863466450  0.2405716760461439  0.2814103943625400
  0.0099577947802961  0.8375881671032478  0.2870839152086467
  0.9872593290283403  0.2477812263377647  0.6743931720307919
  0.3514107872141248  0.0091078238327605  0.1564837717897318
  0.6703381899777928  0.0260773885634677  0.8583604219486372
  0.8238464015218117  0.4253405863405602  0.0850078843964406
  0.1654544100681728  0.4835556370053217  0.9235964380954989
  0.2267973951585014 -0.0069358855355735  0.2849119376231022
  0.7964982493207960  0.0484450738679343  0.7433834649773082
  0.7020655495509791  0.5180701930398811  0.1121635513637799
  0.2914209280454379  0.3901246404735428  0.8849329265016644
  0.2622691728779156  0.7443915338123157  1.1386813672643921
  0.7657061886155423  0.8729467881666755  0.0218707009187674
  0.8023617520431517  0.7131709991764895  0.9805673286818259
  0.2765587447674448  0.6763580459725617 -0.0175413391768698
  0.1960796657035433  0.8950171480859773  0.3666992277947039
  0.8420711399512876  0.1222423626122035  0.8180340476104411
  0.8201482255376784  0.9416819726666885  0.6737196506472379
  0.1864269378228457  0.0481426502090362  0.1871066258779988
  0.6643114451729296  0.5094270592053404 -0.0068534746449314
  0.3224024850543903  0.4303331643503280  0.7657876898595695
  0.3319374341819605  0.3820045025722672  0.9979836869725640
  0.6852987722350256  0.6200440553017246  0.1992231655864305
  0.1333970424319879  0.5093110722281716  0.4480148880745756
  0.8480440862109103  0.0465820988719075  0.3832410873746613
  0.8585004701704695  0.6295864955504076  0.5072221079687577
  0.1346515932355910  0.1702565505380520  0.5578221532015522
  0.6551656473529983  0.3604108303654443  0.5392481605223056
  0.3197828894590369  0.7727996531049709  0.5776762320019232
  0.3524861781104384  0.3811492296875998  0.4429823286081347
  0.6667788699088367  0.9028721775491153  0.4220585387388541
  0.1321614573365387  0.1159192050044099  0.6429852339630981
  0.8201286646005181  0.6443839604923173  0.4684275335682311
  0.8732189723354477  0.0919369486111285  0.3156632977553966
  0.1698335281937724  0.5451116088145490  0.4911672803048042
  0.6668130972217932  0.8423916639339628  0.5012862519981074
  0.3519809443772509  0.4738159773282759  0.4110659718477171
  0.2813726795922627  0.7292986176595490  0.5591172581057035
  0.6768922860906716  0.4389867507847602  0.5781204899213741
  0.4815014508398539 -0.2509269289238376  0.5091417419581732
  0.7146500875592856  0.8430915911629812  0.0960431893452374
  0.8021162831199730  0.9658868517030827  0.1032102043966909
 -0.0549350540492235  0.3545126973543056  1.1619263184434296
  0.8607428482306574  0.7223595211475410  0.9431891936967859
  0.3281140250091516  0.7195911427547185 -0.0760296224955021
  0.2285864842801069  0.6646317483127486  0.2326041768228109
  0.4077871432096315  0.5946690835166012  0.7928120901861581
  0.2502167128917807  0.0965541693303276  0.3737163104116035
  0.7720673138727625  0.1365304767848221  0.6448569371338257
  0.6975474614251971  0.3952664594880047  0.1870707084592957
  0.2615475757055202  0.2634855147179536  0.8640964646570179
  0.3606510881843470  0.1398008327457536  0.2215480917123954
  0.6549314001493769  0.1080885267797106  0.7434281180649644
  0.8001268661625414  0.3024281278000098  0.1372991856472496
  0.1465941013029607  0.3548145255331024  0.8727109237601912
  0.5111571122451202  0.9545133188273498  1.0086643046899308
  0.0016031802365240  0.5370779554555520  0.9855298554586314
  0.5030223923695827  0.4805990362206455  0.5172963931075253
  0.0124129457367781  0.0453648669030888  0.4877414532855297
  0.3985066609434887  0.9500236560503112  1.0585487991088334
  0.6243356721621161  0.9791422234155094  0.9763282976535056
  0.8945895877336860  0.4341958950674447  1.0447801357330417
  0.1181292066946592  0.5894501452063083  0.9689188242200406
  0.0909516797282429  0.8392850372430796 -0.0178733437128994
 
             NaN             NaN             NaN
             NaN             NaN             NaN
             NaN             NaN             NaN
             NaN             NaN             NaN
             NaN             NaN             NaN
             NaN             NaN             NaN
             NaN             NaN             NaN
             NaN             NaN             NaN
             NaN             NaN             NaN
             NaN             NaN             NaN
             NaN             NaN             NaN
             NaN             NaN             NaN
             NaN             NaN             NaN
             NaN             NaN             NaN
             NaN             NaN             NaN
             NaN             NaN             NaN
             NaN             NaN             NaN
             NaN             NaN             NaN
             NaN             NaN             NaN
             NaN             NaN             NaN
             NaN             NaN             NaN
             NaN             NaN             NaN
             NaN             NaN             NaN
             NaN             NaN             NaN
             NaN             NaN             NaN
             NaN             NaN             NaN
             NaN             NaN             NaN
             NaN             NaN             NaN
             NaN             NaN             NaN
             NaN             NaN             NaN
             NaN             NaN             NaN
             NaN             NaN             NaN
             NaN             NaN             NaN
             NaN             NaN             NaN
             NaN             NaN             NaN
             NaN             NaN             NaN
             NaN             NaN             NaN
             NaN             NaN             NaN
             NaN             NaN             NaN
             NaN             NaN             NaN
             NaN             NaN             NaN
             NaN             NaN             NaN
             NaN             NaN             NaN
             NaN             NaN             NaN
             NaN             NaN             NaN
             NaN             NaN             NaN
             NaN             NaN             NaN
             NaN             NaN             NaN
             NaN             NaN             NaN
             NaN             NaN             NaN
             NaN             NaN             NaN
             NaN             NaN             NaN
             NaN             NaN             NaN
             NaN             NaN             NaN
             NaN             NaN             NaN
             NaN             NaN             NaN
             NaN             NaN             NaN
             NaN             NaN             NaN
             NaN             NaN             NaN
             NaN             NaN             NaN
             NaN             NaN             NaN
             NaN             NaN             NaN
             NaN             NaN             NaN
             NaN             NaN             NaN
             NaN             NaN             NaN
             NaN             NaN             NaN
             NaN             NaN             NaN
             NaN             NaN             NaN
             NaN             NaN             NaN
             NaN             NaN             NaN
             NaN             NaN             NaN
             NaN             NaN             NaN
             NaN             NaN             NaN
             NaN             NaN             NaN
             NaN             NaN             NaN
             NaN             NaN             NaN
             NaN             NaN             NaN
             NaN             NaN             NaN
             NaN             NaN             NaN
             NaN             NaN             NaN
             NaN             NaN             NaN
