N    C    H    Mn   Ni   O    Li        
   1.00000000000000     
    17.4218921663956436   -0.1808472462431340    0.2840481065325620
    -0.2995115972558856    7.5814819226818946    0.0269483974137157
    -1.4362567083690587   -0.1130340464665250    7.0936415570501836
   N    C    H    Mn   Ni   O    Li
    12    20    40     2     2     4     1
Direct
  0.4790314252385871  0.2014481937710439  0.7614393593348078
  0.5072291777713182  0.7839451477817040  0.2022449075834981
  0.5120493399464063  0.2081354372289702  0.1989994262708087
  0.4774004280063757  0.7779543906015158  0.7644915680986797
  0.9962114797531350  0.7452592805924326  0.7681265142992856
  0.0132969111844661  0.3118357754007559  0.1896147076219050
  0.0145976915872461  0.7336512872236012  0.1938490341970006
  0.9779692555690106  0.3127938190061967  0.7468033351343898
  0.2786039739956791  0.9882241551598474  0.2235990914432832
  0.7185884638229796  0.0076029198918936  0.8029273827997844
  0.7704549551214439  0.5072308406547624  0.1575780690854515
  0.2274786082127045  0.4802995041240485  0.8150254281381301
  0.4855724639055233  0.3160214058527476  0.6556852032542982
  0.5051399013840110  0.6696476033119396  0.3106093682378664
  0.5079878608791645  0.3205929671261425  0.3085015760480397
  0.4844587936723968  0.6653650313282498  0.6577684870716932
  0.9972142624203610  0.8546379679796875  0.6535046766428012
  0.0100126876483701  0.1981862642416797  0.2979977428961230
  0.0122682725665265  0.8485593059231739  0.3018732804180243
  0.9868326246399182  0.1998328322301447  0.6421400215343912
  0.3468092073042889  0.9959271932620192  0.1638453799168881
  0.6414422715638073  1.0050708152519787  0.8221376381244259
  0.8474499376586950  0.5103290497954485  0.1412411555638581
  0.1496298541646142  0.4934072547431310  0.8083878758812522
  0.2822047444330603  1.0045093742810693  0.4263335169207829
  0.7377644369284322  0.0185783395904124  0.6147588068294374
  0.7499231861969397  0.5069114830714038  0.3451379539602027
  0.2551713912397530  0.4424374339499724  0.6404089832042027
  0.1996059724891600 -0.0343116982429664  0.1138015609528330
  0.7781293922238378 -0.0006848624147693  0.9530442687498970
  0.7113865473390507  0.5039115691895659  0.0058769923808405
  0.2807887351560664  0.5123926996196076  0.9739850843423865
  0.2565174242944444  0.8835010573733576  0.4779819047510145
  0.7741408413570268  0.1390280339258823  0.6040607062368892
  0.7704823863632273  0.9042983012334705  0.5878759098281822
  0.2468946216817348  0.1138899588469484  0.4544606493044198
  0.7134520252389399  0.3879207632936045  0.3606841767996480
  0.2899887373491387  0.5572961573625350  0.6047300539178593
  0.2914622752312303  0.3278312594415132  0.6601462206545734
  0.7166489467703883  0.6228661543022541  0.3624982788782760
  0.1897696120849591  0.8048875656483729  0.6939312121245658
  0.8527257848940133  0.1800546739262377  0.3745241247823226
  0.8654259587203865  0.8456483059703549  0.3774616557899592
  0.1477621910988871  0.1346980515308515  0.6900310381114462
  0.6323975810279786  0.3393837878142933  0.6001827129602103
  0.3597330186849709  0.6627202292233635  0.3862231043778537
  0.3559210206218940  0.3586173817743556  0.3686419618811987
  0.6375345243951882  0.6689029839168295  0.5952422575055791
  0.1696316583831245  0.1113999156752373  0.7860659310758186
  0.8233000260392084  0.8315561411265334  0.3322300201876228
  0.8175184897849955  0.1828735546317269  0.2980803517157695
  0.2134905046434299  0.8481931587675520  0.7837414690285089
  0.6769285696969668  0.6840585894352709  0.6565053160167029
  0.3207439042633147  0.3289799094715952  0.2973060860932342
  0.3192650675685285  0.6870925392733662  0.3443852819959581
  0.6745091808094363  0.3288546177350729  0.6419751603267276
  0.1741228031808331  0.0970868995915345  0.1017305090317592
  0.7626191537001759  0.9859595049195462  0.0905449125997829
  0.8377677556047955  0.0042505089595902  0.9281721367663469
  0.1661408022917939  0.8924803531414995  0.2080573046033459
  0.6515520566265656  0.5021475562607266  0.0291730459658248
  0.3422413948928830  0.5047841825474388  0.9674189439916260
  0.2593567838438233  0.5449057461377527  0.1004341782865533
  0.7272413518759807  0.5024023234043714  0.8683227361603308
  0.3424165235994113  0.0264965268780678  0.5029570263512965
  0.6838824471990382  0.0205645779563773  0.5096308079399539
  0.8032229156201613  0.5097333975442088  0.4524474749110581
  0.2049027437130800  0.4155640410707223  0.5269704278790985
  0.3967764531052571  1.0146747509356013  0.2808109208612620
  0.6004006351869858  1.0090263298678992  0.6875183547848776
  0.8883142543416671  0.5114531632192524  0.2761929186045551
  0.1122112647300784  0.4605341498988497  0.6725169200836593
  0.4853324616872448  0.9914683347739645  0.9799551139471995
  0.9950642321807174  0.5141468186069268  0.9753515805652667
  0.4966717485699502  0.4927916677529021  0.4839518044023847
  0.0023453617981274  0.0250449125058609  0.4740010356239640
  0.3591954353544959 -0.0152611957685731  0.9971499774843922
  0.6201443972428439  0.9984865472133853  0.9775345421844829
  0.8695330399934360  0.5112010246975327  0.9851288753631923
  0.1226918800807815  0.5431439519632346  0.9517176798158624
  0.1274101692794611  0.8059488875248705  0.9166430682554152
 
             NaN             NaN             NaN
             NaN             NaN             NaN
             NaN             NaN             NaN
             NaN             NaN             NaN
             NaN             NaN             NaN
             NaN             NaN             NaN
             NaN             NaN             NaN
             NaN             NaN             NaN
             NaN             NaN             NaN
             NaN             NaN             NaN
             NaN             NaN             NaN
             NaN             NaN             NaN
             NaN             NaN             NaN
             NaN             NaN             NaN
             NaN             NaN             NaN
             NaN             NaN             NaN
             NaN             NaN             NaN
             NaN             NaN             NaN
             NaN             NaN             NaN
             NaN             NaN             NaN
             NaN             NaN             NaN
             NaN             NaN             NaN
             NaN             NaN             NaN
             NaN             NaN             NaN
             NaN             NaN             NaN
             NaN             NaN             NaN
             NaN             NaN             NaN
             NaN             NaN             NaN
             NaN             NaN             NaN
             NaN             NaN             NaN
             NaN             NaN             NaN
             NaN             NaN             NaN
             NaN             NaN             NaN
             NaN             NaN             NaN
             NaN             NaN             NaN
             NaN             NaN             NaN
             NaN             NaN             NaN
             NaN             NaN             NaN
             NaN             NaN             NaN
             NaN             NaN             NaN
             NaN             NaN             NaN
             NaN             NaN             NaN
             NaN             NaN             NaN
             NaN             NaN             NaN
             NaN             NaN             NaN
             NaN             NaN             NaN
             NaN             NaN             NaN
             NaN             NaN             NaN
             NaN             NaN             NaN
             NaN             NaN             NaN
             NaN             NaN             NaN
             NaN             NaN             NaN
             NaN             NaN             NaN
             NaN             NaN             NaN
             NaN             NaN             NaN
             NaN             NaN             NaN
             NaN             NaN             NaN
             NaN             NaN             NaN
             NaN             NaN             NaN
             NaN             NaN             NaN
             NaN             NaN             NaN
             NaN             NaN             NaN
             NaN             NaN             NaN
             NaN             NaN             NaN
             NaN             NaN             NaN
             NaN             NaN             NaN
             NaN             NaN             NaN
             NaN             NaN             NaN
             NaN             NaN             NaN
             NaN             NaN             NaN
             NaN             NaN             NaN
             NaN             NaN             NaN
             NaN             NaN             NaN
             NaN             NaN             NaN
             NaN             NaN             NaN
             NaN             NaN             NaN
             NaN             NaN             NaN
             NaN             NaN             NaN
             NaN             NaN             NaN
             NaN             NaN             NaN
             NaN             NaN             NaN
