N    C    H    Cu   O    Li             
   1.00000000000000     
    17.3146539404213655   -0.1199749127623590    0.0575742482563822
     0.4148400310461692    7.9752760794627031    0.6385641610169790
    -1.9114813560774497    1.1208455572038154    7.1644670777369770
   N    C    H    Cu   O    Li
    12    20    40     4     4     1
Direct
  0.5088213999024979  0.1821142697174679  0.8208149314360703
  0.5161546411668542  0.8155476160172314  0.1892435827302265
  0.5450473090863965  0.2005800282161446  0.2419596256532389
  0.4709594874134257  0.7144441907245304  0.7081855158945045
  0.9825194289709246  0.6517427947152326  0.8091562200708509
  0.9880842549125620  0.2896255678758747  0.1538193511059828
  0.0434192783432972  0.7408685058060446  0.2735153024112777
  0.9519652387542551  0.2697754612543458  0.7266228987070724
  0.2617210367637877  1.0250246761114070  0.2214337293487906
  0.7421467029272434  0.9641141887204915  0.8166910762952935
  0.7525745602018969  0.5246052968465762  0.1399311392619677
  0.2408010857761536  0.5163021601559499  0.8205570505634239
  0.5022801546613905  0.2804419293690879  0.6765290865921818
  0.5088927469536159  0.6777436627203889  0.2711329226295701
  0.5395412312824855  0.3046940113506718  0.3281533176944294
  0.4898405042954942  0.6216266545586365  0.6216001706491031
  0.9907180736383003  0.7858305395556375  0.7189261285295721
 -0.0040569122867805  0.1849155571721336  0.2943077965190815
  0.0249970378888007  0.8288038045876100  0.3653688626806395
  0.9609228747686279  0.1628729110557718  0.6462650764449497
  0.3179970559175474  0.0815908415085531  0.1240659922777460
  0.6744635398968903  0.9564319424014721  0.8874508024670692
  0.8228828257197557  0.5113572435929127  0.0827204487949927
  0.1713929540210223  0.5075569252233165  0.8770503193102758
  0.2881106748149463 -0.0105580650263229  0.4303242833818823
  0.7331091756308423  0.9764151519506157  0.6145541631519906
  0.7574219443989555  0.5317945725198060  0.3360839669880720
  0.2420843782199615  0.4792169504829740  0.6381013679993170
  0.1825805283307615  1.0302964800460306  0.1255344887309603
  0.8148402490817800  0.9736037397942701  0.9282720839449610
  0.6802216945615529  0.5227217019831193  0.0222332311344198
  0.3082728533903248  0.5596698987766685  0.9272085123043776
  0.2595303622486393  0.8832967843260831  0.4955088051932847
  0.7541964548411911  0.0959456104610181  0.5523228388764448
  0.7688095874266331  0.8673077116539543  0.5964793070821094
  0.2713635344274178  0.1038513101360731  0.4763389974697213
  0.7279794233934376  0.4266736462732157  0.4009784354510446
  0.2716974422048118  0.5772695675596269  0.5626831200145758
  0.2748828687332785  0.3520250234086313  0.6630247009329526
  0.7267737974371637  0.6545291260104429  0.3371993254604188
  0.1738261137508803  0.8592774930797038  0.7209509554065566
  0.8185229640702307  0.1720693607488226  0.2894722778762903
  0.8724174843804270  0.8106490952652627  0.3978509346354419
  0.1232738065874996  0.2064546090695061  0.5889059377922089
  0.6758839445765328  0.3113030047251892  0.6809315406322346
  0.3544813283524424  0.6666645950200737  0.3485198425463906
  0.3621080100981552  0.3220713401982744  0.4056286742157433
  0.6369341362893618  0.6774901898476807  0.5661774104474889
  0.1573126040803187  0.1665695634217246  0.6745490786744026
  0.8287537752798635  0.8437962327232476  0.3578605529142084
  0.7777413384053435  0.1555733438452289  0.2368849053621959
  0.1942929703449722  0.8760000126681280  0.8152394338655924
  0.6806568448806827  0.6458652682211059  0.6075734163990000
  0.3285723494990718  0.3623228410371642  0.3190422156988654
  0.3109019632121565  0.6781974547516828  0.2957164950264536
  0.7171765793905268  0.3277734852346342  0.7304925113711256
  0.1570154821995431  0.1265695548694518  0.9933680238943575
  0.8650639887026086  0.9863967689265234  0.8661713145144367
  0.8190142468073192  0.9721147490772253  0.0748706250661444
  0.1379845960098275 -0.0056052761960329  1.2008101155634552
  0.6274303370205309  0.5314060568410776  0.0743066388856381
  0.3607488420154822  0.5689158705650001  0.8730534298776698
  0.3053326001278820  0.5887924304208972  0.0596336808814758
  0.6783999518556911  0.5103719699947454  0.8805869294488886
  0.3534840505361130  0.9563215508255777  0.4832587957588338
  0.6697780275408300  0.9779199460093860  0.5422312600544071
  0.8204400629628295  0.5172621466078995  0.4169159203003722
  0.1802875566310511  0.4835507392757981  0.5535002740093624
  0.3777970142322843  0.0830435050395614  0.2201453232747098
  0.6188312180867612  0.9505072865945765  0.7799861967931733
  0.8773661048054651  0.5105604157801487  0.1965685053019709
  0.1209613122325151  0.4752673840824015  0.7731820837040755
  0.5293441016785043  0.0431901075465654  0.0744252894883313
  0.9606389729188434  0.4213637744404894  0.8943920979827674
  0.5102615416207158  0.4684820153320876  0.4673317270799097
  0.9942988673549300 -0.0085819795267597  0.5121753875014612
  0.3031730932932025  0.1269437878092464  0.9504457264946341
  0.6774511806548340  0.9595995540687697  0.0531498490934573
  0.8236938214312235  0.4977969313686106  0.9215239650763569
  0.1654382717098261  0.5364767652818022  0.0314692311244744
  0.0739082633467029  0.6284688533454490  0.0870879170329651
 
             NaN             NaN             NaN
             NaN             NaN             NaN
             NaN             NaN             NaN
             NaN             NaN             NaN
             NaN             NaN             NaN
             NaN             NaN             NaN
             NaN             NaN             NaN
             NaN             NaN             NaN
             NaN             NaN             NaN
             NaN             NaN             NaN
             NaN             NaN             NaN
             NaN             NaN             NaN
             NaN             NaN             NaN
             NaN             NaN             NaN
             NaN             NaN             NaN
             NaN             NaN             NaN
             NaN             NaN             NaN
             NaN             NaN             NaN
             NaN             NaN             NaN
             NaN             NaN             NaN
             NaN             NaN             NaN
             NaN             NaN             NaN
             NaN             NaN             NaN
             NaN             NaN             NaN
             NaN             NaN             NaN
             NaN             NaN             NaN
             NaN             NaN             NaN
             NaN             NaN             NaN
             NaN             NaN             NaN
             NaN             NaN             NaN
             NaN             NaN             NaN
             NaN             NaN             NaN
             NaN             NaN             NaN
             NaN             NaN             NaN
             NaN             NaN             NaN
             NaN             NaN             NaN
             NaN             NaN             NaN
             NaN             NaN             NaN
             NaN             NaN             NaN
             NaN             NaN             NaN
             NaN             NaN             NaN
             NaN             NaN             NaN
             NaN             NaN             NaN
             NaN             NaN             NaN
             NaN             NaN             NaN
             NaN             NaN             NaN
             NaN             NaN             NaN
             NaN             NaN             NaN
             NaN             NaN             NaN
             NaN             NaN             NaN
             NaN             NaN             NaN
             NaN             NaN             NaN
             NaN             NaN             NaN
             NaN             NaN             NaN
             NaN             NaN             NaN
             NaN             NaN             NaN
             NaN             NaN             NaN
             NaN             NaN             NaN
             NaN             NaN             NaN
             NaN             NaN             NaN
             NaN             NaN             NaN
             NaN             NaN             NaN
             NaN             NaN             NaN
             NaN             NaN             NaN
             NaN             NaN             NaN
             NaN             NaN             NaN
             NaN             NaN             NaN
             NaN             NaN             NaN
             NaN             NaN             NaN
             NaN             NaN             NaN
             NaN             NaN             NaN
             NaN             NaN             NaN
             NaN             NaN             NaN
             NaN             NaN             NaN
             NaN             NaN             NaN
             NaN             NaN             NaN
             NaN             NaN             NaN
             NaN             NaN             NaN
             NaN             NaN             NaN
             NaN             NaN             NaN
             NaN             NaN             NaN
