N    C    H    Cu   Ni   O    Li
   1.00000000000000     
  22.7564249724761005  -2.6829582164849901   0.2164341984008150
  -1.4986959776244599   6.8000662501681202  -0.2885548300251370
  -1.1110111177290400  -0.2107072196856660   6.9295130067232202
N    C    H    Cu   Ni   O    Li
12  20  40  2  2  4  1  
Direct
  0.4335906492936622  0.2492352243138463  0.7103564626847217  
  0.5544607004825011  0.8864644397036193  0.2057496976685697  
  0.4953601457960654  0.2224445846846139  0.1505284397088638  
  0.5074199341291635  0.8670579196543989  0.7729082541488849  
  0.0166654096576176  0.6998107685997856  0.8191108111105969  
  0.0138801950368622  0.2906709084233532  0.2149490904944997  
  0.9797132819538262  0.6499015054443142  0.1921699415434278  
  0.9822335683013216  0.2656164149350831  0.8026386689600238  
  0.2300898435908746  0.9511617625135780  0.0920169836878358  
  0.7868184865318394  0.0362318562842828  0.9085187447951932  
  0.7104116771227448  0.4704356712960705  0.0925002855200791  
  0.2807453900128005  0.5350511401516727  0.9165819645144716  
  0.4611453123565744  0.3618781842529790  0.6084699299761023  
  0.5371673891876907  0.7542545994978939  0.3053557853239109  
  0.4969637707894615  0.3507939845858888  0.2682210842521830  
  0.5055865027361792  0.7480643380815121  0.6470826868977479  
  0.0076988909891289  0.8031287980877866  0.6973168339852807  
  0.0059740521055595  0.1668638742967692  0.3267408082836935  
  0.9906986077771612  0.7793235198252672  0.3171446562129633  
  0.9925852682639668  0.1576808854281925  0.6900269786543147  
  0.2938066343385515  0.9995703348002102  0.1183129877303143  
  0.7418187528428538  0.0017143297371698  0.0322313958798164  
  0.7546928624767878  0.5007739921877462  0.9686299425468944  
  0.2356405017942831  0.4744814211829761  0.0351053978020231  
  0.1975561186015040  0.8920448308953909  0.2570267074337106  
  0.7677014645635598  0.0539047055583576  0.7030083630692214  
  0.7289011187499584  0.4460105404001378  0.2965475509305167  
  0.2612029526946160  0.5660203121513608  0.7154881787358620  
  0.1960937710287020  0.9586214283416534  0.9186526522364464  
  0.8458069724575437  0.0495059582373343  0.9759537015371736  
  0.6518087169840494  0.4669636028211167  0.0279925664999623  
  0.3423823446513330  0.5716000766416477  0.9835799789369372  
  0.1642698967165926  0.7360117272925321  0.2273550476640006  
  0.7947742348000189  0.2044731797559644  0.6644794673382743  
  0.7756102583892072  0.9349902160990772  0.6147117383840374  
  0.1726060632441296  0.9975422721842548  0.2841011410871376  
  0.7016804093410129  0.2937077157018401  0.3309090636114947  
  0.2828048736884695  0.7269414652519887  0.6915221559679089  
  0.2755467907234572  0.4712947126478005  0.6168607750811770  
  0.7207351077635992  0.5620000884858112  0.3881389817313615  
  0.1033715804141084  0.5572326517110364  0.5012176517701934  
  0.8903349503744760  0.3823339686618384  0.4347950080277584  
  0.8730804323518657  0.8403498307784245  0.4551396294079280  
  0.1194262333049519  0.1259153593537315  0.5539426948630974  
  0.6114125659004747  0.1496889394594226  0.5523619765587725  
  0.3872880027210472  0.8618355709094822  0.4929926566101585  
  0.3376233386580489  0.3049561276705146  0.4855780805736091  
  0.6293741723868538  0.6615656437628197  0.5514248907426320  
  0.1540905640934163  0.1763910774598539  0.5558889780457468  
  0.8420686058610850  0.8501598021421870  0.4140151903399336  
  0.8594933914293085  0.2975683950682793  0.4073411282466807  
  0.1205041375374699  0.6398850423375326  0.5809575399837295  
  0.6570192338377364  0.6362720940571321  0.6009858877027985  
  0.3148800356364202  0.3322416870601073  0.4123632276682931  
  0.3618305961986388  0.7698551677883083  0.4397507794727747  
  0.6384658947364111  0.2358025505025672  0.6076890219275793  
  0.1457063685997880  0.9185275092396288  0.9073204769446362  
  0.8792773407891189  0.0724726649459279  0.8768712515213433  
  0.8580908959381298  0.0368630694835541  0.1290665556839438  
  0.2212960803848429  0.0066540680847910  0.7997987831543670  
  0.6198328138010472  0.4521557480422458  0.1306392068548984  
  0.3754909586321593  0.6170104860161120  0.8839069146047236  
  0.3557292092817375  0.5517606864170789  0.1342343609362854  
  0.6394225235009100  0.4849707424631221  0.8762888309814424  
  0.2321099880217070  0.8989005983059306  0.3845707290359846  
  0.7178711249254818  0.0357678356093379  0.6762495940200721  
  0.7787844528464291  0.4647209293550074  0.3235588296083455  
  0.2101879552826445  0.5251133084504861  0.6861231162396496  
  0.3147379146841233  0.9840326334684464  0.2653246660150813  
  0.6951529247057772  0.9922445730306506  0.9559075824565260  
  0.8008900704537507  0.5036569895767861  0.0436267158519799  
  0.1877621067866207  0.4467281280700365  0.9569714749368480  
  0.5155874928272408  0.0223041264305024  0.0073772738338945  
  0.9954743602180556  0.4742055746840796  0.0053519384441453  
  0.5016405077783530  0.5516690607429018  0.4555106528239233  
  0.9999964735627336  0.9769657019172020  0.5083783939277845  
  0.3252094813037812  0.0556532010022182  0.9859985712430112  
  0.7538513813389270  0.9822345839044452  0.2054350344164095  
  0.7431526634505127  0.5242930702898255  0.7957471182334306  
  0.2477112419530287  0.4544432625256280  0.2094397339515787  
  0.4080109765224716  0.1600942341301496  0.9496819794966532  
