H    Li   C    N    O    Mg             
   1.00000000000000     
     6.9457474433121078   -1.2044614022293563    0.9104952340209230
    -0.4487105549115411    7.7498999086428437    0.0464132513623926
     0.4730166874179154    0.0094759279609635    7.1548639798550671
   H    Li   C    N    O    Mg
    14     1    10     6     2     2
Selective dynamics
Direct
  0.5919023661653510  0.9627064651603641  0.6840776384275886   T   T   T
  0.2154526554361471 -0.0280932323283303  0.3321760378165383   T   T   T
  0.4104183712206719  0.1592143330717374  0.2487077288508100   T   T   T
  0.2503388868365090  0.1600243257056221  0.4751753007567536   T   T   T
  0.6691764927659777 -0.0101146727301304  0.2173900552373969   T   T   T
  0.4833859932622590  0.7919177076326454  0.2929382758462343   T   T   T
  0.6806767337227396  0.8610412240061777  0.4186727776606477   T   T   T
  0.3203536646287331  0.5181986315086020  0.5006354801045919   T   T   T
  0.4811862584264982  0.3930858416571185  0.9645034952197522   T   T   T
  0.6601692957796154  0.6057632904457196  0.9049086688800942   T   T   T
  0.6821355976073925  0.4178802448081219  0.7657335774870061   T   T   T
  0.3540415462773743  0.7209689318724251  0.9192424591802600   T   T   T
  0.1934675262926286  0.5055902062419696  0.9459734318274564   T   T   T
  0.2050329613764802  0.6495581149424846  0.7471810086276910   T   T   T
  0.7040308229273895  0.4615848450864978  0.1596709348350815   T   T   T
  0.9820961504688263  0.8233224759232635  0.0836300351829124   T   T   T
  0.0096303280318671  0.2572330757612648  0.6976479749728521   T   T   T
  0.9682782032658724  0.8538206382794514  0.6843236548424928   T   T   T
  0.9870466476051124  0.2298917625586240  0.1098219744737816   T   T   T
  0.4727727889062817  0.0188527886310884  0.6487704865993799   T   T   T
  0.3254901449328110  0.0785857684263607  0.3765999523728816   T   T   T
  0.5803610379637589  0.9068253364309229  0.3423408204985657   T   T   T
  0.4494334862705945  0.4964170312891867  0.5520847327320864   T   T   T
  0.5774313634216955  0.4861572575435618  0.8480665020980042   T   T   T
  0.2910448170423073  0.6069263839315071  0.8420970679480013   T   T   T
  0.9198401011440228  0.6892753463472550  0.1770028072888188   T   T   T
  0.9573700643468696  0.3570957271553156  0.6061037641097531   T   T   T
  0.9278539965154633  0.7384160619597160  0.5826395484699276   T   T   T
  0.9100029454106596  0.3276738927096928  0.2069928241370505   T   T   T
  0.4598124876652827  0.0057495301973782  0.4656884814572320   T   T   T
  0.4506734559986750  0.5374635923261499  0.7340973496994276   T   T   T
  0.3670914392388017  0.0864533997746524  0.7760196337161041   T   T   T
  0.5928932719735717  0.4554493558598189  0.4363382295910693   T   T   T
  0.8946298512284141  0.5216557281756627  0.4203554859398024   T   T   T
  0.0718082458433756  0.0564525896381141  0.8789568031119576   T   T   T
 
  0.00000000E+00  0.00000000E+00  0.00000000E+00
  0.00000000E+00  0.00000000E+00  0.00000000E+00
  0.00000000E+00  0.00000000E+00  0.00000000E+00
  0.00000000E+00  0.00000000E+00  0.00000000E+00
  0.00000000E+00  0.00000000E+00  0.00000000E+00
  0.00000000E+00  0.00000000E+00  0.00000000E+00
  0.00000000E+00  0.00000000E+00  0.00000000E+00
  0.00000000E+00  0.00000000E+00  0.00000000E+00
  0.00000000E+00  0.00000000E+00  0.00000000E+00
  0.00000000E+00  0.00000000E+00  0.00000000E+00
  0.00000000E+00  0.00000000E+00  0.00000000E+00
  0.00000000E+00  0.00000000E+00  0.00000000E+00
  0.00000000E+00  0.00000000E+00  0.00000000E+00
  0.00000000E+00  0.00000000E+00  0.00000000E+00
  0.00000000E+00  0.00000000E+00  0.00000000E+00
  0.00000000E+00  0.00000000E+00  0.00000000E+00
  0.00000000E+00  0.00000000E+00  0.00000000E+00
  0.00000000E+00  0.00000000E+00  0.00000000E+00
  0.00000000E+00  0.00000000E+00  0.00000000E+00
  0.00000000E+00  0.00000000E+00  0.00000000E+00
  0.00000000E+00  0.00000000E+00  0.00000000E+00
  0.00000000E+00  0.00000000E+00  0.00000000E+00
  0.00000000E+00  0.00000000E+00  0.00000000E+00
  0.00000000E+00  0.00000000E+00  0.00000000E+00
  0.00000000E+00  0.00000000E+00  0.00000000E+00
  0.00000000E+00  0.00000000E+00  0.00000000E+00
  0.00000000E+00  0.00000000E+00  0.00000000E+00
  0.00000000E+00  0.00000000E+00  0.00000000E+00
  0.00000000E+00  0.00000000E+00  0.00000000E+00
  0.00000000E+00  0.00000000E+00  0.00000000E+00
  0.00000000E+00  0.00000000E+00  0.00000000E+00
  0.00000000E+00  0.00000000E+00  0.00000000E+00
  0.00000000E+00  0.00000000E+00  0.00000000E+00
  0.00000000E+00  0.00000000E+00  0.00000000E+00
  0.00000000E+00  0.00000000E+00  0.00000000E+00
