N    C    H    Hg   Cd   O    Li        
   1.00000000000000     
    17.3133800919890319   -0.1380142726286460   -0.0752065162535615
     0.5801269390895245    8.4040100689319033    0.1937002130833020
    -1.8648922495483549    0.7680899357308385    7.5720747042265222
   N    C    H    Hg   Cd   O    Li
    12    20    40     2     2     4     1
Direct
  0.5569606521262183  0.2285438437364505  0.8608180777768406
  0.5419016003288354  0.8516673521516271  0.2502107280533526
  0.4319116819242392  0.2845059032143442  0.2179748065616619
  0.4881429257245132  0.7937980695822840  0.7747841199695087
  0.9861830003437689  0.6917819225439954  0.7581797432622641
  0.0100251298290448  0.2954637671043460  0.1895849934903432
  0.0245295900409675  0.7913883250807404  0.1606230045071129
  0.9269164010901395  0.3176750300697086  0.6666163414116223
  0.2621917618258514  0.9837087998756511  0.2419762245672726
  0.7325393349893260  0.9930662449512042  0.7562829637156967
  0.7559404869575549  0.5162798251680588  0.1954549550646591
  0.2576044252075879  0.4767961793279560  0.8512768349487946
  0.5564286807250641  0.3322996811540282  0.7481102462830466
  0.5484155590492045  0.7371284387537331  0.3542598582818746
  0.4512873526678217  0.3751029434931362  0.3213464494536560
  0.4627112389115998  0.7011230607433442  0.6782644453196639
  0.9929231576915347  0.8072544850261730  0.6678415827194387
  0.0542389023604111  0.1773564149609030  0.2595813044845336
 -0.0139282926089929  0.8609301106733147  0.2380107616331790
  0.9307287623728469  0.2181971966715023  0.5737085009904426
  0.3404277341206116  0.9663560828092245  0.1938835648325297
  0.6641973793686793  0.9464947664804754  0.8094748605833093
  0.8301810054330070  0.4953512863750696  0.1558272955666828
  0.1805963955926817  0.4693817476278127  0.8694280495898576
  0.2688652691501809  1.0069367725373684  0.4305981990181448
  0.7259827069726408  0.0629925879417616  0.5738452936947702
  0.7493450577058914  0.5340903152851776  0.3764043932479731
  0.2909361305856245  0.3665062274721357  0.7456660687992759
  0.1947043949623234  0.9572965078626205  0.1384825087147624
  0.8058186603368842  0.9646686023054896  0.8661876293589107
  0.6870146287384039  0.5303628738476749  0.0683528633498717
  0.3042497990126876  0.5835392826031945  0.9345261523641374
  0.2469124811692160  0.9018677143448779  0.4920101923369434
  0.7738124406534221  0.1432929072272783  0.5760228856916354
  0.7317585152655767  0.9702092092794450  0.4876084899503447
  0.2331651853543317  0.1164765995684427  0.4394475494689177
  0.7184158657354262  0.4364338500813956  0.4273306784932167
  0.3281652642213464  0.4311993706638150  0.6712877368966603
  0.3284064108194005  0.2638684249877208  0.8300784098507313
  0.7143841609665058  0.6482292694232220  0.3738136681494283
  0.1567623448558116  0.7837783162283352  0.6764821054794121
  0.7550890469973464  0.2120868219993500  0.2340899216977121
  0.8362649375954700  0.8129673485367981  0.3513840124398376
  0.1182009017452992  0.1439450971783394  0.5953228381511081
  0.7071711401951419  0.3453699205940486  0.7571713950038897
  0.3125460373860878  0.6376052025272553  0.4284799058774680
  0.2861017207942271  0.3367832863287902  0.2315329897361103
  0.7032002032106848  0.6842606790993080  0.6513245061701708
  0.1346493633598511  0.1077106084532558  0.6903693946964956
  0.8001855072380191  0.8486952418700194  0.2805341135488995
  0.7406948146821857  0.1394208750126470  0.1926783490090339
  0.1927897143740006  0.8173630441815944  0.7302031484897843
  0.7435575311564118  0.6689199571640053  0.7156619164052361
  0.2422631019924620  0.3324682632838227  0.2263525603810921
  0.2838467998431244  0.6079185504556607  0.3527666312521171
  0.7502085028861697  0.3595943437623259  0.7636423783983728
  0.1058595149775911  0.0955512289094184  0.2408894441753656
  0.8561770766920838  0.9586101099509967  0.8061020152877431
  0.8093705445885573  0.9327002844563668  1.0054102770879916
  0.3925194745895590  0.0451459727257612  0.8030010985867574
  0.6319147560075223  0.5209607445665878  0.1103738792300785
  0.3650682069721978  0.5872497076521705  0.9213498112394226
  0.2778100829549921  0.6623544541970920  0.0107270343558977
  0.6905468584841781  0.5474648407743339  0.9319206658647202
  0.3318152632753807  1.0150894452768475  0.4966312284583478
  0.6682516715336789  0.1343771635035534  0.5247345184240803
  0.8090011835087411  0.5348811742068997  0.4637698537908360
  0.2422735841201323  0.3201268201009123  0.6516010965169660
  0.3891381887199345  1.0115638843083548  0.2909496879134864
  0.6108369544782583 -0.0456795225624689  0.6973532091273212
  0.8806808468944014  0.4760489394597189  0.2743262431214404
  0.1479672266168728  0.3795738975613818  0.7944670348801665
  0.4790742126674574  0.0150264710361308 -0.0419170909705862
  0.9855241244897933  0.4585891688830710  0.9362923919301310
  0.5067635657472050  0.5273482232216750  0.5201776789751129
  0.9719247658390220  0.0160481942941762  0.4462097195538755
  0.3476505118893971  0.9075102616745563  0.0648080823420194
  0.6654024899350678  0.8940432490339606  0.9622164279554942
  0.8383394417941631  0.4939982279468812  1.0031190726029631
  0.1504232564228171  0.5556955792053430  0.9629207670166865
  0.1177737028323871  0.7607568936917499  0.0426703531507534
 
             NaN             NaN             NaN
             NaN             NaN             NaN
             NaN             NaN             NaN
             NaN             NaN             NaN
             NaN             NaN             NaN
             NaN             NaN             NaN
             NaN             NaN             NaN
             NaN             NaN             NaN
             NaN             NaN             NaN
             NaN             NaN             NaN
             NaN             NaN             NaN
             NaN             NaN             NaN
             NaN             NaN             NaN
             NaN             NaN             NaN
             NaN             NaN             NaN
             NaN             NaN             NaN
             NaN             NaN             NaN
             NaN             NaN             NaN
             NaN             NaN             NaN
             NaN             NaN             NaN
             NaN             NaN             NaN
             NaN             NaN             NaN
             NaN             NaN             NaN
             NaN             NaN             NaN
             NaN             NaN             NaN
             NaN             NaN             NaN
             NaN             NaN             NaN
             NaN             NaN             NaN
             NaN             NaN             NaN
             NaN             NaN             NaN
             NaN             NaN             NaN
             NaN             NaN             NaN
             NaN             NaN             NaN
             NaN             NaN             NaN
             NaN             NaN             NaN
             NaN             NaN             NaN
             NaN             NaN             NaN
             NaN             NaN             NaN
             NaN             NaN             NaN
             NaN             NaN             NaN
             NaN             NaN             NaN
             NaN             NaN             NaN
             NaN             NaN             NaN
             NaN             NaN             NaN
             NaN             NaN             NaN
             NaN             NaN             NaN
             NaN             NaN             NaN
             NaN             NaN             NaN
             NaN             NaN             NaN
             NaN             NaN             NaN
             NaN             NaN             NaN
             NaN             NaN             NaN
             NaN             NaN             NaN
             NaN             NaN             NaN
             NaN             NaN             NaN
             NaN             NaN             NaN
             NaN             NaN             NaN
             NaN             NaN             NaN
             NaN             NaN             NaN
             NaN             NaN             NaN
             NaN             NaN             NaN
             NaN             NaN             NaN
             NaN             NaN             NaN
             NaN             NaN             NaN
             NaN             NaN             NaN
             NaN             NaN             NaN
             NaN             NaN             NaN
             NaN             NaN             NaN
             NaN             NaN             NaN
             NaN             NaN             NaN
             NaN             NaN             NaN
             NaN             NaN             NaN
             NaN             NaN             NaN
             NaN             NaN             NaN
             NaN             NaN             NaN
             NaN             NaN             NaN
             NaN             NaN             NaN
             NaN             NaN             NaN
             NaN             NaN             NaN
             NaN             NaN             NaN
             NaN             NaN             NaN
