N    C    H    Hg   Pt   O    Li        
   1.00000000000000     
    16.6904581285349991   -0.1285879267887190   -0.2334268939584940
    -0.4671472434295760    8.0424709479760583    0.1731190306711550
    -2.1518771598442785    0.7108095350903940    7.5147402401151053
   N    C    H    Hg   Pt   O    Li
    12    20    40     2     2     4     1
Direct
  0.4998578002428437  0.2055705613287304  0.7989217018149397
  0.5341095671071545  0.7915922851297442  0.2110749705523047
  0.5371054400404559  0.2227072327288380  0.2587652739955543
  0.4981737391869953  0.7691534527632888  0.7428304677040958
  0.9914349812965056  0.6790407886454684  0.8044120256676925
  0.0159965705180417  0.2816912203257638  0.2154568707542211
  0.0528585695303440  0.7131544474979397  0.2648768501107845
  0.9357581123499837  0.2376378119737871  0.6714975008895295
  0.2776273025772467 -0.0133767510676928  0.1845415752318282
  0.7427779803142179  1.0240992116722052  0.7946103625930458
  0.7572341310155501  0.5338061510032128  0.2120458098952444
  0.2386231031824060  0.5226224073856247  0.8188836287302601
  0.5005628853614742  0.3137590908325055  0.6844091233985391
  0.5231253148478135  0.6791370552216911  0.3132213595871786
  0.5245272921421454  0.3236862749124929  0.3428208644850891
  0.4999796278973839  0.6660477312532724  0.6508151278971926
  0.9913824784765748  0.7814610635302315  0.6834014247047714
  1.0116424310901759  0.1599392266183997  0.3134814419950410
  0.0337999239935679  0.8045132007262037  0.3509482502247651
  0.9608758270990111  0.1309096194243842  0.6133317762208791
  0.3550426081067302  0.0188732397860592  0.1593811386054900
  0.6734216519601489  1.0090577399244338  0.8530114101832157
  0.8322306352042019  0.5614378839896720  0.1741787862836918
  0.1660817798533853  0.5128613893090698  0.8687668058353093
  0.2686470890337213  0.0043477839325258  0.3598485829694860
  0.7343197721007604  0.0086474421392651  0.6066207529490566
  0.7576122989496530  0.4942363693044499  0.3999820988822861
  0.2353054005710332  0.4807059352767182  0.6402065265862583
  0.2096083113122824  0.9256225986813823  0.0629084871152443
  0.8229722159249324  1.0586365716818813  0.9091672535515916
  0.6834266516720388  0.5350510678667412  0.0830774923351304
  0.3126188001989525  0.5787408824855765  0.9244215203227589
  0.2557855836828184  0.8801676285304516  0.4215646719402055
  0.7496713464956997  0.1282953605141882  0.5382060920235630
  0.7771368936264643  0.9152637605072003  0.5972172534412955
  0.2163146644740835  0.0858113603820826  0.3412734060978855
  0.7246997104509214  0.3733790395173917  0.4135629389129974
  0.2527216097928013  0.5907310912916121  0.5597153571029566
  0.2785918961050268  0.3801165600158167  0.6525936833155824
  0.7259091737286750  0.5907425919181626  0.4402493483967155
  0.1780430516345344  0.8493875696160859  0.6348447335446813
  0.8280974391438247  0.2028364950746281  0.3110114679540025
  0.8130018826851364  0.8626335319572698  0.3222387524571047
  0.1441975468693791  0.1471442723601304  0.7334915546939540
  0.6600663017372469  0.3393819684019167  0.6812850646760326
  0.3306160775969950  0.6747692385587435  0.3495945902277864
  0.2939825762285467  0.3552883934884807  0.3123327313633996
  0.6767917587887101  0.6522507503821480  0.6653080524535253
  0.1890647556971529  0.1758462654471844  0.7546654385161875
  0.7689325612176247  0.8750878376432555  0.2639099186376302
  0.7905336876595730  0.1839372811034226  0.2355065747445162
  0.2243540204126812  0.8444699531648346  0.6768911072227577
  0.7212351520018387  0.6572283229113957  0.7227692797593149
  0.2521436045921933  0.3878220349186852  0.2579023581511438
  0.2890058278728226  0.6656079575820598  0.2813271673014021
  0.7019950626500787  0.3417892857366635  0.7502923815459719
  0.1506926145581388 -0.1097525614073851  0.1076076064378675
  0.8317204770245377  1.0018355235595280  1.0466639436718845
  0.8738267037347887  1.0122973186883411 -0.1315542523216869
  0.2221618855902332 -0.0792039905572009 -0.0656800384925928
  0.6275624367268298  0.5008496664258847  0.1244023658759080
  0.3654868998654910  0.5905653951807991  0.8695143934523724
  0.3152007891740634  0.6116431188568964  0.0555005953371122
  0.6830159111242371  0.5707542598407371  0.9450766678903565
  0.3258176929744251  0.0589357277220402  0.4440029866925823
  0.6701184832010592 -0.0302252643325312  0.5388675848886765
  0.8219862915130780  0.4840506106798714  0.4865174792797561
  0.1720159983021181  0.4384747700321923  0.5709894039848338
  0.4025459352522315  0.0542615299394107  0.2800868117153564
  0.6168899842827210  0.9727074884042552  0.7500341321700944
  0.8861703636887575  0.5634307960867045  0.2934622159670113
  0.1115595194533921  0.4751660980621931  0.7625975922961902
  0.5186871083337496  1.0156315869947083  0.0246883586517119
  0.8621899409909559  0.3195445229027956  0.9302790236188544
  0.5095591746485013  0.4944573913357752  0.4947889180348664
  0.9998776515241899  0.9648116058883398  0.4904458065649528
  0.3708835532191070  1.0063183042827912  0.0144591786035571
  0.6721707639666057  1.0310918451556019  1.0066472806066125
  0.8380772961838819  0.5800359269031314  1.0155103693626082
  0.1624426254976616  0.5463069202822550  1.0176679460716418
  0.0544343875258319  0.5627060666330377  0.0716911218842777
 
             NaN             NaN             NaN
             NaN             NaN             NaN
             NaN             NaN             NaN
             NaN             NaN             NaN
             NaN             NaN             NaN
             NaN             NaN             NaN
             NaN             NaN             NaN
             NaN             NaN             NaN
             NaN             NaN             NaN
             NaN             NaN             NaN
             NaN             NaN             NaN
             NaN             NaN             NaN
             NaN             NaN             NaN
             NaN             NaN             NaN
             NaN             NaN             NaN
             NaN             NaN             NaN
             NaN             NaN             NaN
             NaN             NaN             NaN
             NaN             NaN             NaN
             NaN             NaN             NaN
             NaN             NaN             NaN
             NaN             NaN             NaN
             NaN             NaN             NaN
             NaN             NaN             NaN
             NaN             NaN             NaN
             NaN             NaN             NaN
             NaN             NaN             NaN
             NaN             NaN             NaN
             NaN             NaN             NaN
             NaN             NaN             NaN
             NaN             NaN             NaN
             NaN             NaN             NaN
             NaN             NaN             NaN
             NaN             NaN             NaN
             NaN             NaN             NaN
             NaN             NaN             NaN
             NaN             NaN             NaN
             NaN             NaN             NaN
             NaN             NaN             NaN
             NaN             NaN             NaN
             NaN             NaN             NaN
             NaN             NaN             NaN
             NaN             NaN             NaN
             NaN             NaN             NaN
             NaN             NaN             NaN
             NaN             NaN             NaN
             NaN             NaN             NaN
             NaN             NaN             NaN
             NaN             NaN             NaN
             NaN             NaN             NaN
             NaN             NaN             NaN
             NaN             NaN             NaN
             NaN             NaN             NaN
             NaN             NaN             NaN
             NaN             NaN             NaN
             NaN             NaN             NaN
             NaN             NaN             NaN
             NaN             NaN             NaN
             NaN             NaN             NaN
             NaN             NaN             NaN
             NaN             NaN             NaN
             NaN             NaN             NaN
             NaN             NaN             NaN
             NaN             NaN             NaN
             NaN             NaN             NaN
             NaN             NaN             NaN
             NaN             NaN             NaN
             NaN             NaN             NaN
             NaN             NaN             NaN
             NaN             NaN             NaN
             NaN             NaN             NaN
             NaN             NaN             NaN
             NaN             NaN             NaN
             NaN             NaN             NaN
             NaN             NaN             NaN
             NaN             NaN             NaN
             NaN             NaN             NaN
             NaN             NaN             NaN
             NaN             NaN             NaN
             NaN             NaN             NaN
             NaN             NaN             NaN
