N    C    H    Ge   Cu   O    Li        
   1.00000000000000     
    16.2027003768012214    0.0713548519613251    0.2764699092148430
     0.0170181794730169    7.3300029087454490   -0.1026530236157380
    -1.4085749063925113    0.1418062117895690    6.9260312562064312
   N    C    H    Ge   Cu   O    Li
    12    20    40     2     2     4     1
Direct
  0.4864988257669063  0.1960026680121903  0.8014134613644339
  0.5310358792448054  0.8118482401424777  0.2123422194640388
  0.5177992693782307  0.1961552273644013  0.1996890244284610
  0.4750611666207276  0.8126105882859974  0.7927003056105160
  0.9757211622552752  0.6957504944079825  0.8005612705653601
  0.0146858588663305  0.2995196481599769  0.2084894968120623
  0.0260941140255738  0.6888392812004175  0.2039263357845827
  0.9852348616285314  0.2996846543389639  0.8029331956150909
  0.2789892743462859  0.9994997315604748  0.1956833202671797
  0.7255840053198026 -0.0000611377690549  0.8040775418322408
  0.7747648492132616  0.4999657471552127  0.1934651792494426
  0.2236936411172947  0.5001251302261134  0.8057608995039233
  0.5063742217547516  0.3157883201110377  0.7056751803390517
  0.5404356002660117  0.6981644618141146  0.3348546253898092
  0.4950062873789626  0.3149024241768173  0.2919894324610374
  0.4615534156005752  0.7025568305297514  0.6683858585969779
  0.9588623768687426  0.7998171498700631  0.6683618359256026
 -0.0032084611755131  0.1856653782200528  0.3140409324082525
  0.0373055819309928  0.7957105708801262  0.3319864253658941
  1.0122684970235591  0.1686085503591686  0.7346085151641027
  0.3568128931053172  1.0002846710729880  0.1685345058512109
  0.6477197006991303  0.9946406927392428  0.8325313168065062
  0.8526343847442633  0.5022769787914970  0.1654836530376234
  0.1457255707662888  0.4983689305958490  0.8335495819973671
  0.2680715091722472  0.0041100458569908  0.3972380202228346
  0.7375880429315835  0.0021256453181795  0.6028334078462304
  0.7622970743874874  0.4989784847111602  0.3947605286632504
  0.2376405512364692  0.5006134656257190  0.6060831634681287
  0.2029997151211471  0.9843601281757277  0.0472260628801992
  0.8012666906522551  0.0029704622115743  0.9473361025700520
  0.6987930056958537  0.4977588282609837  0.0508717228568187
  0.2986781037203663  0.5016909314313892  0.9486854043403524
  0.2341121862255058  0.8816997333275545  0.4271647375040354
  0.7739079597488758  0.1228308056639617  0.5795392761441148
  0.7724783830266363  0.8792495402756856  0.5766682898630734
  0.2298351150123991  0.1238369349311391  0.4162080306938384
  0.7261670970284518  0.3781842359722375  0.4185879342586422
  0.2727768545473152  0.6229985840809602  0.5814445845505815
  0.2743792159398388  0.3790296594653944  0.5850131189915081
  0.7270734005072211  0.6217838687111599  0.4195033107588798
  0.1535755000156366  0.8267863066920087  0.6377773335926920
  0.8431823523918514  0.1705494250350284  0.3616055582889812
  0.8416496438212743  0.8272402223928770  0.3582930917122231
  0.1643930286889960  0.1801045006628260  0.6277406362731061
  0.6572520673517499  0.3310805684992441  0.6396548117784310
  0.3452436837379941  0.6684505711322299  0.3553637446841050
  0.3449314818812094  0.3340573891055235  0.3584910601522623
  0.6557171603615618  0.6711135514897656  0.6396725028149619
  0.1849369403410333  0.1393169150815856  0.7240302998827413
  0.8071292879201937  0.8492492502154224  0.2743664188421824
  0.8078625503859440  0.1474817561614645  0.2803583697673129
  0.1764396041870336  0.8619118551101442  0.7353315451872878
  0.6911622766641163  0.6513145646859211  0.7223769793056737
  0.3045414420205933  0.3503194015964402  0.2892405427280907
  0.3093353403634774  0.6524497717725338  0.2732831671281392
  0.6940949465865898  0.3514207802863875  0.7179551544860221
  0.1616963548302769  0.0976693816120995  0.0800292142314027
  0.8323816516772358  0.8700186373463891  0.9895633451522392
  0.8372256495471483  0.1317111194607574  0.9575811132564092
  0.1754179723654900  0.8535519049683679  0.0876396832029078
  0.6657860484396814  0.6297985236499164  0.0175553987814993
  0.3314181851559337  0.3706207988747279  0.9836983667443151
  0.3331911399395469  0.6309133205824998  0.9648125936855454
  0.6635018086961159  0.3684928920096320  0.0387249209152059
  0.3281160464314134  0.0102851179189933  0.4991394662060363
  0.6768902838247263  0.0064539549420116  0.5028782212468266
  0.8229651534462887  0.4955033200543630  0.4948854865811499
  0.1775031227193677  0.4993442650425025  0.5041913352839638
  0.4047951155356529  0.0035127766804121  0.2996253498182158
  0.5997195843303255  0.9914156326609010  0.7016049988708252
  0.9001561699307695  0.5044388815360864  0.2974487727141017
  0.0982595529106141  0.4973002974387817  0.7014096873942528
  0.5021891004208069  0.9986802245069653  1.0017244126787117
  0.9990899525373738  0.4933669949520880  1.0024800305004142
  0.5008448355096247  0.5051862791334647  0.4993885520772927
 -0.0000454838911397 -0.0110286300024581  0.5040376135936459
  0.3808150280485377  0.9964214436850709  1.0032749003617971
  0.6248295320913216  0.9947037241748918  0.9985545481900999
  0.8764036975185313  0.5012488401361517  0.9998958406957952
  0.1225267828383747  0.5003363178302046 -0.0005296777728412
  0.0691740290985713  0.9408171767077445  0.9435406904542849
 
             NaN             NaN             NaN
             NaN             NaN             NaN
             NaN             NaN             NaN
             NaN             NaN             NaN
             NaN             NaN             NaN
             NaN             NaN             NaN
             NaN             NaN             NaN
             NaN             NaN             NaN
             NaN             NaN             NaN
             NaN             NaN             NaN
             NaN             NaN             NaN
             NaN             NaN             NaN
             NaN             NaN             NaN
             NaN             NaN             NaN
             NaN             NaN             NaN
             NaN             NaN             NaN
             NaN             NaN             NaN
             NaN             NaN             NaN
             NaN             NaN             NaN
             NaN             NaN             NaN
             NaN             NaN             NaN
             NaN             NaN             NaN
             NaN             NaN             NaN
             NaN             NaN             NaN
             NaN             NaN             NaN
             NaN             NaN             NaN
             NaN             NaN             NaN
             NaN             NaN             NaN
             NaN             NaN             NaN
             NaN             NaN             NaN
             NaN             NaN             NaN
             NaN             NaN             NaN
             NaN             NaN             NaN
             NaN             NaN             NaN
             NaN             NaN             NaN
             NaN             NaN             NaN
             NaN             NaN             NaN
             NaN             NaN             NaN
             NaN             NaN             NaN
             NaN             NaN             NaN
             NaN             NaN             NaN
             NaN             NaN             NaN
             NaN             NaN             NaN
             NaN             NaN             NaN
             NaN             NaN             NaN
             NaN             NaN             NaN
             NaN             NaN             NaN
             NaN             NaN             NaN
             NaN             NaN             NaN
             NaN             NaN             NaN
             NaN             NaN             NaN
             NaN             NaN             NaN
             NaN             NaN             NaN
             NaN             NaN             NaN
             NaN             NaN             NaN
             NaN             NaN             NaN
             NaN             NaN             NaN
             NaN             NaN             NaN
             NaN             NaN             NaN
             NaN             NaN             NaN
             NaN             NaN             NaN
             NaN             NaN             NaN
             NaN             NaN             NaN
             NaN             NaN             NaN
             NaN             NaN             NaN
             NaN             NaN             NaN
             NaN             NaN             NaN
             NaN             NaN             NaN
             NaN             NaN             NaN
             NaN             NaN             NaN
             NaN             NaN             NaN
             NaN             NaN             NaN
             NaN             NaN             NaN
             NaN             NaN             NaN
             NaN             NaN             NaN
             NaN             NaN             NaN
             NaN             NaN             NaN
             NaN             NaN             NaN
             NaN             NaN             NaN
             NaN             NaN             NaN
             NaN             NaN             NaN
