N    C    H    Pb   Pd   O    Li        
   1.00000000000000     
    15.2524546503802370    0.2518305473877370   -1.5008556881075501
     0.5313100088421786    7.4797301067899049    0.0464600367040309
    -2.5574611007181907    0.1182868809883967    7.2644446617729868
   N    C    H    Pb   Pd   O    Li
    12    20    40     2     2     4     1
Direct
  0.4632822542251762  0.2248925267479568  0.7651668981582583
  0.5444072008722159  0.7761337030619776  0.2389883426302482
  0.5379983116964624  0.2100804324130772  0.2330191941066278
  0.4651037254133916  0.7897276335527441  0.7663342978475767
  0.9483177197074928  0.7458449427559687  0.7933190715064911
  0.0638856921329866  0.2346540629083113  0.2891764502231042
  0.0536577453389645  0.7105193922542721  0.2383641371427470
  0.9380526861096357  0.2910688653863995  0.6976311493550756
  0.2702499620272679  0.0106305886045536  0.1875029945087660
  0.7320598971038346  0.0020297939281655  0.8109243930979066
  0.7602319306388091  0.5019518294628070  0.2149587527851692
  0.2402655559452380  0.5051698990545925  0.7927177149864895
  0.4813002034126326  0.3208530448705935  0.6657456757359065
  0.5242951746207919  0.6805277483492601  0.3356511340528946
  0.5220504999322714  0.3138860631908599  0.3338419852524126
  0.4814749503764186  0.6869510044100698  0.6652968890596862
  0.9619206922759009  0.8092994340265222  0.6674427183187599
  0.0267013295264342  0.1367801428796903  0.3503703260716375
  0.0242063345174346  0.7805292139963356  0.3429982898528304
  0.9593443680155787  0.1672261506290782  0.6250324066429167
  0.3527596069550187  0.9984051002157984  0.1615537843965520
  0.6511608950802430  0.9924728346115171  0.8353186469347776
  0.8430977009608790  0.5011702088251428  0.1976046875872524
  0.1563898268417413  0.5273934096081838  0.8075807305441878
  0.2762037865712813  0.0135941619467298  0.3835349011421493
  0.7292154637243765  0.0017177168111471  0.6184555334400229
  0.7584860924233576  0.5093189120169709  0.4022487201012961
  0.2424606949720161  0.4878192199260841  0.6057001368728726
  0.1800516940117081  0.0231850238635364  0.0317794569199057
  0.8233694947049248  0.0025923551466997  0.9665261903572601
  0.6712830454676333  0.4977870968902174  0.0528296793632478
  0.3298658322568175  0.5092964923475433  0.9535173197073608
  0.2461910870606702  0.8943234521935245  0.4107542310211586
  0.7639915656111371  0.1168637115528815  0.5980461873739812
  0.7677543152076325  0.8775752845786927  0.6019496241148481
  0.2351026686721198  0.1339005266485262  0.4004752961471802
  0.7263652735858557  0.3917536630061216  0.4258567995966500
  0.2763069607862156  0.6016884787705009  0.5790892257890975
  0.2845813730320405  0.3630367810905068  0.6039270040761543
  0.7154546133458121  0.6312369483254960  0.4082775365661639
  0.1771322367489341  0.8348202523519875  0.6384413462607404
  0.8126065425580139  0.1706894866524102  0.3300308918102667
  0.8207331052031857  0.8269264859136398  0.3489682019873622
  0.1715900287815232  0.1777475032003570  0.6524128146596654
  0.6770803824633118  0.3431289823059053  0.6755954195426503
  0.3263472942470296  0.6638848638875220  0.3357682119758390
  0.3268760915653932  0.3387495622492070  0.3363462594616351
  0.6749164258840217  0.6718257005149966  0.6682786912428296
  0.2148532563926614  0.1542236416518814  0.7461578214182193
  0.7750375232259393  0.8540533865780674  0.2606062424991642
  0.7710021889842478  0.1415545203066259  0.2428907075800017
  0.2249589883703284  0.8614743523894981  0.7110667056532977
  0.7210716094971568  0.6487281109019098  0.7565365552535525
  0.2812457442951754  0.3597020030848232  0.2463540015137766
  0.2820758923638222  0.6506421924303366  0.2451033695188204
  0.7233893405625477  0.3561995466875676  0.7619211990050018
  0.1245677973012352  0.1266749059438928  0.0339478066515333
  0.8581845428268841  0.8775008432747637  0.0467637136770072
  0.8600982734288781  0.1244595163944100 -0.0117697938583420
  0.1716093621447240  0.9480940630806673  0.9029249650020079
  0.6328275677778389  0.6243203423913636  0.9830091051913907
  0.3702288986988012  0.3817070214453940  0.0159723206987321
  0.3614772117056285  0.6360433088712369  0.9910892075567961
  0.6384367178229857  0.3719861003466482  0.0207366651289012
  0.3519810574544003  0.0117412926696856  0.4877331364446260
  0.6540533876218596  0.0104869579641177  0.5104343585605036
  0.8324387315566678  0.5090904428677688  0.5134025159771065
  0.1686587402025084  0.4883264997327496  0.4934477904096718
  0.4196487849833387  0.9902967085392855  0.2952462515649185
  0.5853011557416679  0.9919741017168021  0.7025515012728948
  0.9076842115056740  0.5031622701054551  0.3329069137696953
  0.0928326298211711  0.5114230472507277  0.6736880170876370
  0.5015518025272990  0.9991052577999928 -0.0001497900711004
 -0.0033553105880707  0.4475546171058203  0.0031960528926469
  0.5021947104336699  0.5007445316832260  0.4999091885307679
  0.9891540334019103  0.9644989917479901  0.4926721819359186
  0.3521333282284440  1.0035899107778132  0.9922029239649814
  0.6506972384688298  0.9882187121922910  0.0040403164222785
  0.8470674860820594  0.4978921808555822  0.0357242294540284
  0.1493924172532443  0.5628187089652128  0.9638214370522997
  0.0823678975734832  0.7734957466341227  0.0191789506728779
 
             NaN             NaN             NaN
             NaN             NaN             NaN
             NaN             NaN             NaN
             NaN             NaN             NaN
             NaN             NaN             NaN
             NaN             NaN             NaN
             NaN             NaN             NaN
             NaN             NaN             NaN
             NaN             NaN             NaN
             NaN             NaN             NaN
             NaN             NaN             NaN
             NaN             NaN             NaN
             NaN             NaN             NaN
             NaN             NaN             NaN
             NaN             NaN             NaN
             NaN             NaN             NaN
             NaN             NaN             NaN
             NaN             NaN             NaN
             NaN             NaN             NaN
             NaN             NaN             NaN
             NaN             NaN             NaN
             NaN             NaN             NaN
             NaN             NaN             NaN
             NaN             NaN             NaN
             NaN             NaN             NaN
             NaN             NaN             NaN
             NaN             NaN             NaN
             NaN             NaN             NaN
             NaN             NaN             NaN
             NaN             NaN             NaN
             NaN             NaN             NaN
             NaN             NaN             NaN
             NaN             NaN             NaN
             NaN             NaN             NaN
             NaN             NaN             NaN
             NaN             NaN             NaN
             NaN             NaN             NaN
             NaN             NaN             NaN
             NaN             NaN             NaN
             NaN             NaN             NaN
             NaN             NaN             NaN
             NaN             NaN             NaN
             NaN             NaN             NaN
             NaN             NaN             NaN
             NaN             NaN             NaN
             NaN             NaN             NaN
             NaN             NaN             NaN
             NaN             NaN             NaN
             NaN             NaN             NaN
             NaN             NaN             NaN
             NaN             NaN             NaN
             NaN             NaN             NaN
             NaN             NaN             NaN
             NaN             NaN             NaN
             NaN             NaN             NaN
             NaN             NaN             NaN
             NaN             NaN             NaN
             NaN             NaN             NaN
             NaN             NaN             NaN
             NaN             NaN             NaN
             NaN             NaN             NaN
             NaN             NaN             NaN
             NaN             NaN             NaN
             NaN             NaN             NaN
             NaN             NaN             NaN
             NaN             NaN             NaN
             NaN             NaN             NaN
             NaN             NaN             NaN
             NaN             NaN             NaN
             NaN             NaN             NaN
             NaN             NaN             NaN
             NaN             NaN             NaN
             NaN             NaN             NaN
             NaN             NaN             NaN
             NaN             NaN             NaN
             NaN             NaN             NaN
             NaN             NaN             NaN
             NaN             NaN             NaN
             NaN             NaN             NaN
             NaN             NaN             NaN
             NaN             NaN             NaN
