N    C    H    Pb   Pt   O    Li
   1.00000000000000     
  14.7253559546908992   0.3440047779893240  -1.4220803399536601
   0.1625830819954940   7.3657403373340902   0.0770406402189655
  -2.4434975995981101   0.0291986110956704   7.3456526854618698
N    C    H    Pb   Pt   O    Li
12  20  40  2  2  4  1  
Direct
  0.4603237011505089  0.2221127700135516  0.7669437604601114  
  0.5404987287559626  0.7853181164470778  0.2358561814958990  
  0.5414052672603265  0.2170444500123766  0.2323564726129350  
  0.4651966993934600  0.7848746557957283  0.7708589351165240  
  0.9434455824112450  0.7094831381642569  0.7434123896057201  
  0.0735747264298103  0.2882202234134866  0.3173310930530056  
  0.0462881976983271  0.7195734776875768  0.2128576577260832  
  0.9361607347955364  0.2749583971396281  0.7090313149732815  
  0.2631478597661742  0.0068690022190107  0.2021381551550316  
  0.7339703883841732  0.0012527340470073  0.8039570648888341  
  0.7585709359177829  0.4994848209098442  0.2154463648591629  
  0.2464052638616423  0.4988576014099635  0.7841130207075236  
  0.4790411379376014  0.3168594150302024  0.6638869868376656  
  0.5218928456860003  0.6827112097264165  0.3340380684685907  
  0.5218470654684012  0.3165914852441839  0.3332766370729597  
  0.4802477244137643  0.6820401050125412  0.6682671856885376  
  0.9517111943728244  0.7935718321795342  0.6203027345782404  
  0.0401521222428948  0.1668256531996750  0.3660825028260398  
  0.0143016321778560  0.7990954851022579  0.3084919545303532  
  0.9679984067683752  0.1607204251383696  0.6393798378445159  
  0.3454728707931163  0.0181017048431903  0.1638075440446762  
  0.6515218351563867  0.9980554503800581  0.8323122489724011  
  0.8422606245954896  0.5040211670063619  0.1906074228808514  
  0.1613124418740019  0.5146181961597679  0.8022003788965416  
  0.2762805762910555  0.9954734594061970  0.4015389296936553  
  0.7315747046651581  0.0015026389971741  0.6123961698894105  
  0.7588937771839336  0.4996385920852062  0.4044500735653618  
  0.2471259737010435  0.4937507027195372  0.5965931651255425  
  0.1686138812229361  0.0115344664410324  0.0693528549982897  
  0.8281241295388894  0.0005644266771327  0.9549305163275282  
  0.6664142279788949  0.5000141172343104  0.0587677290122922  
  0.3367791257429525  0.5066811433901204  0.9447222876309294  
  0.2409599748372974  0.8745623166937753  0.4223565395938005  
  0.7688239167755601  0.1202811779042834  0.5921768592500417  
  0.7698521268436858  0.8771531013195001  0.5946898218012517  
  0.2402414430461967  0.1174056910087472  0.4316344174322909  
  0.7215243084897992  0.3812951249189117  0.4242802002490444  
  0.2858381461125219  0.6110386435531892  0.5790669538357174  
  0.2851302315712888  0.3676539463713231  0.5820048692905472  
  0.7206275241054313  0.6241869018753623  0.4224388711505205  
  0.1737735988947890  0.8407583561264472  0.6399805871344231  
  0.8209283930119009  0.1675037081176058  0.3356911655343791  
  0.8116086897525747  0.8294601882324073  0.3301168412781000  
  0.1711788079302578  0.1727712170636765  0.6654263272954201  
  0.6743852143276942  0.3443055848838035  0.6764667628797771  
  0.3296153434132765  0.6581575453443748  0.3294041426849030  
  0.3293346528681001  0.3425373097694264  0.3336275155751375  
  0.6727046583323056  0.6676717920483816  0.6683923293774880  
  0.2172181489601503  0.1495169545075603  0.7522718164329175  
  0.7677439421966502  0.8565844359673787  0.2407387269727272  
  0.7777808791794817  0.1470565955426361  0.2457258138218344  
  0.2194330532342554  0.8551077879586977  0.7309263351726512  
  0.7208010827226885  0.6511860874418613  0.7532126282834206  
  0.2794795993290034  0.3510693950686045  0.2524524559612216  
  0.2801543839453609  0.6556145929138509  0.2465621607494567  
  0.7241616585133286  0.3507104308020325  0.7569652121659959  
  0.1476847167322947  0.1012560332265738  0.9412968958358828  
  0.8639569427435190  0.8695464031751636  0.0154506399112983  
  0.8627023996009421  0.1302980457788724  0.9978922734948582  
  0.1145965860556940  0.9463338586551304  0.1116349994737747  
  0.6334620108833932  0.6290726077211547  0.9876495755003974  
  0.3733410905469433  0.3774241999464816  0.0094306056735273  
  0.3641292260621243  0.6381880359814430  0.9999220171622634  
  0.6316263449501331  0.3715497596327638  0.0162055915768278  
  0.3547723848543989  0.9866484909940640  0.4956469942425326  
  0.6548014553226769  0.0074413618489982  0.5082990972107572  
  0.8354229232450111  0.4922504647623738  0.5090376676682902  
  0.1706128812221190  0.5020450303344278  0.4913616363091816  
  0.4154954300764324  0.0213423086276796  0.2905486584345570  
  0.5832134141061155  0.9969327112973262  0.7049522149867296  
  0.9097478291912288  0.5031487460104249  0.3216421654454842  
  0.0943244806728525  0.4870944572359879  0.6748336553785131  
  0.4980871372657948  0.0030532579448671  0.0007540911182611  
  0.0080341108204772  0.4591644452064599  0.0061799575248264  
  0.5006905654344803  0.5000077912867092  0.4993859311372079  
  0.9893908909963632  0.9758989103602502  0.4766862555246031  
  0.3421193994555587  0.0168914599784229  0.9940995944712492  
  0.6513012584666011  0.9988941741140920  0.0003427126206908  
  0.8453555181329153  0.5070177846197358  0.0295127202563105  
  0.1556637397767298  0.5674153340273255  0.9549751288813758  
  0.1066331537261656  0.8005442541043001  0.8323018968807271  
