H    Li   C    N    O    Cr   Mn        
   1.00000000000000     
     7.0307238722144216   -1.0043174166514413    0.8264789774730776
    -0.3071544182744769    7.0737071421513829    0.0208790518437783
     0.4205102262589085   -0.0035807679881003    6.7397515152552456
   H    Li   C    N    O    Cr   Mn
    14     1    10     6     2     1     1
Selective dynamics
Direct
  0.5647782318196213  0.9718885433317491  0.7113063754245322   T   T   T
  0.2227829847485201 -0.0278657872622303  0.2919011716893985   T   T   T
  0.3870027539412987  0.1942129820078073  0.2501088813867176   T   T   T
  0.2036687990253258  0.1536619242363866  0.4726390160961770   T   T   T
  0.6615862191898859  0.0243725255927117  0.2154919139953540   T   T   T
  0.5080343201875864  0.7974225952381357  0.2738932881822187   T   T   T
  0.6865536206379589  0.8854334981018256  0.4250726135852892   T   T   T
  0.3538465886759584  0.5183296265327744  0.4711355391691968   T   T   T
  0.5008546966503284  0.3783417607900194  0.9767908295339706   T   T   T
  0.6362331757702193  0.6242110589922820  0.9368756598619783   T   T   T
  0.7118307236488690  0.4353807307992569  0.7811235480453351   T   T   T
  0.3335668017128621  0.7335457840978991  0.9009380930517903   T   T   T
  0.2123285054014536  0.4911525139118733  0.9579023200953699   T   T   T
  0.1907819336308106  0.6101732075442132  0.7321719265924687   T   T   T
  0.7575353057349284  0.4648221178160092  0.1222111957959172   T   T   T
  0.9772145864210481  0.8335352998052015  0.0762883577082690   T   T   T
  0.9621525130906440  0.2121372180771746  0.7196381728836172   T   T   T
  0.9692288779573179  0.8461555349020334  0.7048502220111412   T   T   T
  0.9866974208043302  0.2079561135263185  0.0899116544043064   T   T   T
  0.4414058043068279  0.0243899671593623  0.6669712634087763   T   T   T
  0.3046616078653568  0.0879765172499902  0.3670162001675846   T   T   T
  0.5818377275091627  0.9256830833540274  0.3404038464043914   T   T   T
  0.4821842684299719  0.5025923036641394  0.5346447800247199   T   T   T
  0.5868929122507308  0.4882251796594992  0.8643338546127918   T   T   T
  0.2883105511624433  0.5940037349715245  0.8361291383191409   T   T   T
  0.9495748451662179  0.7018574650065555  0.1975647803958009   T   T   T
  0.9390955913665571  0.3355668798057871  0.6093590097222952   T   T   T
  0.9412893466100465  0.7169312082335482  0.5923568854692327   T   T   T
  0.9552545401117086  0.3252059145518034  0.2149177521229475   T   T   T
  0.4394784930810101  0.0137139566918677  0.4695363278370912   T   T   T
  0.4590936767315795  0.5264506084045539  0.7319962586063714   T   T   T
  0.3241191846176625  0.0912810977541466  0.7982069831587174   T   T   T
  0.6283329789986084  0.4634774569798538  0.4152960649000471   T   T   T
  0.9185861901210849  0.5155041680643321  0.4132245242706624   T   T   T
  0.0305342226220933  0.0353172104075801  0.8843565510663829   T   T   T
 
  0.00000000E+00  0.00000000E+00  0.00000000E+00
  0.00000000E+00  0.00000000E+00  0.00000000E+00
  0.00000000E+00  0.00000000E+00  0.00000000E+00
  0.00000000E+00  0.00000000E+00  0.00000000E+00
  0.00000000E+00  0.00000000E+00  0.00000000E+00
  0.00000000E+00  0.00000000E+00  0.00000000E+00
  0.00000000E+00  0.00000000E+00  0.00000000E+00
  0.00000000E+00  0.00000000E+00  0.00000000E+00
  0.00000000E+00  0.00000000E+00  0.00000000E+00
  0.00000000E+00  0.00000000E+00  0.00000000E+00
  0.00000000E+00  0.00000000E+00  0.00000000E+00
  0.00000000E+00  0.00000000E+00  0.00000000E+00
  0.00000000E+00  0.00000000E+00  0.00000000E+00
  0.00000000E+00  0.00000000E+00  0.00000000E+00
  0.00000000E+00  0.00000000E+00  0.00000000E+00
  0.00000000E+00  0.00000000E+00  0.00000000E+00
  0.00000000E+00  0.00000000E+00  0.00000000E+00
  0.00000000E+00  0.00000000E+00  0.00000000E+00
  0.00000000E+00  0.00000000E+00  0.00000000E+00
  0.00000000E+00  0.00000000E+00  0.00000000E+00
  0.00000000E+00  0.00000000E+00  0.00000000E+00
  0.00000000E+00  0.00000000E+00  0.00000000E+00
  0.00000000E+00  0.00000000E+00  0.00000000E+00
  0.00000000E+00  0.00000000E+00  0.00000000E+00
  0.00000000E+00  0.00000000E+00  0.00000000E+00
  0.00000000E+00  0.00000000E+00  0.00000000E+00
  0.00000000E+00  0.00000000E+00  0.00000000E+00
  0.00000000E+00  0.00000000E+00  0.00000000E+00
  0.00000000E+00  0.00000000E+00  0.00000000E+00
  0.00000000E+00  0.00000000E+00  0.00000000E+00
  0.00000000E+00  0.00000000E+00  0.00000000E+00
  0.00000000E+00  0.00000000E+00  0.00000000E+00
  0.00000000E+00  0.00000000E+00  0.00000000E+00
  0.00000000E+00  0.00000000E+00  0.00000000E+00
  0.00000000E+00  0.00000000E+00  0.00000000E+00
