H    Li   C    N    O    Pt   Mn        
   1.00000000000000     
     7.3836240680883982   -0.7700282678977244    0.5340376214697516
    -0.0974292543206699    7.0926312054526131    0.0924500592367844
     0.2201290011906838    0.0733384583809690    6.4423929875462544
   H    Li   C    N    O    Pt   Mn
    14     1    10     6     2     1     1
Selective dynamics
Direct
  0.5594883891328576 -0.0052956235179345  0.7505757762402754   T   T   T
  0.2445306917018212 -0.0589276831666649  0.2901846833976324   T   T   T
  0.3846662323834808  0.1523710832356436  0.2013124108385589   T   T   T
  0.2181359497814421  0.1553692681803733  0.4220120481593103   T   T   T
  0.6749897269523611  0.0453492323200327  0.2415057901919745   T   T   T
  0.5642416247932440  0.8113998313460629  0.3087569105047282   T   T   T
  0.7100814348865849  0.9309370086078640  0.4793762291400153   T   T   T
  0.2450277482188879  0.5913048403565866  0.5824430847187309   T   T   T
  0.5882931349347812  0.3297754000938173  0.8941918020762056   T   T   T
  0.6979058809793465  0.5719979531363878  0.8686960539294905   T   T   T
  0.6861942891663677  0.4308901427993587  0.6477044388947123   T   T   T
  0.4130673122720465  0.6917047176802419  0.0253943250645849   T   T   T
  0.3050780188250817  0.4540648335984618  0.0607142403149365   T   T   T
  0.2044272908920298  0.6223244821220554  0.9142031059938415   T   T   T
  0.6377965366944828  0.4334720869281782  0.2115205239095561   T   T   T
  0.9167670351742992  0.8600842724052805  0.0341840307736678   T   T   T
  0.9591997171471915  0.1906022616944572  0.6711831037380858   T   T   T
  0.0250922556871616  0.8418173341829708  0.6666890529696586   T   T   T
 -0.0229085127151003  0.2266808332781876  0.0354758219834122   T   T   T
  0.4406309131232546  0.0392224822896374  0.6823729039015424   T   T   T
  0.3170204461763260  0.0728286840528542  0.3416411627606936   T   T   T
  0.6095043462382735  0.9494755166196626  0.3706320805699129   T   T   T
  0.3777674816157749  0.5374935347503065  0.5754819652321503   T   T   T
  0.6115631690017400  0.4613721269205470  0.7957225341278080   T   T   T
  0.3338504962528676  0.5768114880572414  0.9495228102360177   T   T   T
  0.9099796520243213  0.7262823511896319  0.1518062082758841   T   T   T
  0.9495630309937331  0.3091130931390950  0.5406087489793954   T   T   T
  0.0026236196497026  0.7104880782549399  0.5581163438732226   T   T   T
  0.8771225075499250  0.3299011280105388  0.1249469548822899   T   T   T
  0.4531727582916560  0.0286664288831345  0.4754267222995637   T   T   T
  0.4400039196262801  0.5260298034143319  0.7621617042593843   T   T   T
  0.3152479499464601  0.0983918265552863  0.8027282898994499   T   T   T
  0.4568974864875501  0.4958391804878061  0.4033025631956960   T   T   T
  0.9386927983600448  0.5212900542883079  0.3469579586208236   T   T   T
  0.0516146677537508  0.0439159478053336  0.8590126160467909   T   T   T
 
  0.00000000E+00  0.00000000E+00  0.00000000E+00
  0.00000000E+00  0.00000000E+00  0.00000000E+00
  0.00000000E+00  0.00000000E+00  0.00000000E+00
  0.00000000E+00  0.00000000E+00  0.00000000E+00
  0.00000000E+00  0.00000000E+00  0.00000000E+00
  0.00000000E+00  0.00000000E+00  0.00000000E+00
  0.00000000E+00  0.00000000E+00  0.00000000E+00
  0.00000000E+00  0.00000000E+00  0.00000000E+00
  0.00000000E+00  0.00000000E+00  0.00000000E+00
  0.00000000E+00  0.00000000E+00  0.00000000E+00
  0.00000000E+00  0.00000000E+00  0.00000000E+00
  0.00000000E+00  0.00000000E+00  0.00000000E+00
  0.00000000E+00  0.00000000E+00  0.00000000E+00
  0.00000000E+00  0.00000000E+00  0.00000000E+00
  0.00000000E+00  0.00000000E+00  0.00000000E+00
  0.00000000E+00  0.00000000E+00  0.00000000E+00
  0.00000000E+00  0.00000000E+00  0.00000000E+00
  0.00000000E+00  0.00000000E+00  0.00000000E+00
  0.00000000E+00  0.00000000E+00  0.00000000E+00
  0.00000000E+00  0.00000000E+00  0.00000000E+00
  0.00000000E+00  0.00000000E+00  0.00000000E+00
  0.00000000E+00  0.00000000E+00  0.00000000E+00
  0.00000000E+00  0.00000000E+00  0.00000000E+00
  0.00000000E+00  0.00000000E+00  0.00000000E+00
  0.00000000E+00  0.00000000E+00  0.00000000E+00
  0.00000000E+00  0.00000000E+00  0.00000000E+00
  0.00000000E+00  0.00000000E+00  0.00000000E+00
  0.00000000E+00  0.00000000E+00  0.00000000E+00
  0.00000000E+00  0.00000000E+00  0.00000000E+00
  0.00000000E+00  0.00000000E+00  0.00000000E+00
  0.00000000E+00  0.00000000E+00  0.00000000E+00
  0.00000000E+00  0.00000000E+00  0.00000000E+00
  0.00000000E+00  0.00000000E+00  0.00000000E+00
  0.00000000E+00  0.00000000E+00  0.00000000E+00
  0.00000000E+00  0.00000000E+00  0.00000000E+00
