N    C    H    Cu   O    Li
   1.00000000000000     
  16.8495991028709007  -0.1092811851891400   0.0407253082209132
  -0.0361866322072193   7.7327221374098203   0.6269304650904890
  -2.0615959702999800   0.5798497664802080   7.0268509314861696
N    C    H    Cu   O    Li
12  20  40  4  4  1  
Direct
  0.5027496335112240  0.1915649220653812  0.8125084270836079  
  0.5124112865611004  0.8175602683887384  0.1762941578833633  
  0.5494835812729282  0.2051318068014445  0.2445601026999111  
  0.4656005262311025  0.7575008696370620  0.6969959245796606  
  0.9731918571560300  0.6566835574491062  0.8033576324462215  
  0.9961729271128460  0.3040053167114391  0.1689972329402988  
  0.0637021724537933  0.7152823082503408  0.2964521017697051  
  0.9551317047269424  0.2552863519833276  0.7369610133524834  
  0.2609912574119385  0.0429377176976695  0.2282084162860733  
  0.7403742870608052  0.9774660082541040  0.8015569326488522  
  0.7527752810902738  0.5156305334118155  0.1598802253277687  
  0.2420590254107972  0.5075190536402628  0.8116282842089585  
  0.4940153814583373  0.2937475899639052  0.6716557969252088  
  0.5029747265335979  0.6820739258581925  0.2636009129075207  
  0.5414659698372501  0.3123222993423363  0.3355250022484149  
  0.4858668866961386  0.6523509285569734  0.6183753542486420  
  0.9749675787529706  0.7815312264708412  0.6895191462520552  
  0.9910173088948830  0.1810076968217686  0.2816078406341380  
  0.0507799960277004  0.8176575988524872  0.3878656094159935  
  0.9806874235265070  0.1546600278499410  0.6608605904115432  
  0.3223751816396438  0.0618455630626849  0.1295154346588023  
  0.6700803267130289  0.9680641408396530  0.8680482854958183  
  0.8245544212767980  0.5009174388529780  0.1076040510312142  
  0.1704899157551026  0.4983487597266694  0.8670208303433978  
  0.2866786467415940  0.0005075040739734  0.4384204041946881  
  0.7300057414066550  0.9882423060672710  0.5953082849560173  
  0.7588450849296976  0.5292644298254868  0.3599797585657030  
  0.2386378469119673  0.4815957660392829  0.6164425462491366  
  0.1809585515994072  0.0608794209110327  0.1315704783662460  
  0.8160816573815656  0.9939140852089570  0.9185742233567936  
  0.6768032807629063  0.5058427413334601  0.0383782078652099  
  0.3160376810310515  0.5432195698775867  0.9272351136295828  
  0.2537664001092068  0.8863455233463334  0.4833661135078092  
  0.7504702516242612  0.1153453319352864  0.5405871443021903  
  0.7675877651409424  0.8850338810363531  0.5699648826703558  
  0.2715324769185591  0.1107862867116286  0.5008807889788572  
  0.7287841522417444  0.4177920603987784  0.4209360143168819  
  0.2681023442191685  0.5904425534074914  0.5497539606293239  
  0.2721119058461765  0.3594313765863428  0.6232726912094376  
  0.7273117696837267  0.6504518627354093  0.3650540010646328  
  0.1742794906423800  0.8422999432216384  0.7452807635510884  
  0.8263200447417972  0.1729504265018529  0.3163718817723055  
  0.8676102532440566  0.8301115887234111  0.3771608105113792  
  0.1299155340514125  0.1791683307019706  0.6051331897544998  
  0.6705658918573838  0.3142039873531344  0.6641863613473089  
  0.3349165084005154  0.6987696440234461  0.3223839755692446  
  0.3567446787379515  0.3398699585534971  0.3906407431287483  
  0.6446443172303558  0.6676882709951102  0.5957986735744769  
  0.1730513310748330  0.1523310361813678  0.6658979794259541  
  0.8261591115340777  0.8430945471842397  0.3033636633040200  
  0.7837662706413340  0.1539984555135337  0.2584944407675511  
  0.2148621886520318  0.8687827640399074  0.8060143734306511  
  0.6891109268995269  0.6417318627449867  0.6448315700135228  
  0.3186900321243954  0.3691303590028299  0.3095915950891258  
  0.2915045357071672  0.6894691941341224  0.2624836540295870  
  0.7120178589367506  0.3307753334504248  0.7294250265658313  
  0.1648040758917834  0.0901708374600236  0.9760779121164910  
  0.8685567535732146  0.0030400752062672  0.8595676438079694  
  0.8217094654571057  0.0008503325931193  0.0675592472614908  
  0.1350010183883418  0.0419808957194918  0.2101560401690031  
  0.6232471214493193  0.5190242068348860  0.0903856383252136  
  0.3688176820098706  0.5552334838980982  0.8691931939983839  
  0.3192807592739323  0.5645834555131789  0.0709495742544060  
  0.6720201938307306  0.4846327670789877  0.8937970701906380  
  0.3534640483520257  0.9709756345102490  0.4910475990516179  
  0.6648503676888310  0.9756424518755090  0.5199305426545460  
  0.8238358480631083  0.5281798788324973  0.4431299223339443  
  0.1741661784907015  0.4773120009308072  0.5322765287636710  
  0.3855949512157434  0.0400551893261046  0.2270145096980492  
  0.6123723617597789  0.9552865635697581  0.7551604455104250  
  0.8811916643673064  0.5091190144883249  0.2239274595393142  
  0.1156554474028648  0.4721924258138998  0.7533111562699175  
  0.5293708352444911  0.0446201595103561  0.0566845194856755  
  0.9420520459254770  0.4207336910984740  0.8928480911035540  
  0.5058636706572651  0.4824650363704206  0.4687223490460022  
  0.0012482478239798  0.9845099861903730  0.5062813746700577  
  0.3058774970672848  0.0976125102968203  0.9542974622724446  
  0.6732251053549057  0.9758458448332330  0.0369343469907300  
  0.8250652572104034  0.4764219395757198  0.9435779183567758  
  0.1675300904319269  0.5187470215152767  0.0311655920944013  
  0.0704261807837285  0.5580382091791987  0.1117912673135316  
