H    Li   C    N    O    Ge  Cu         
   1.00000000000000     
     6.9594149936037910   -0.9594000633203463    0.5178809516395299
    -0.2696420991917468    7.0731960280487387   -0.0037916212258386
     0.1156763151624049   -0.0250281162222262    6.6177786723152998
   H    Li   C    N    O    Ge   Cu
    14     1    10     6     2     1     1
Selective dynamics
Direct
  0.5569181932671419  0.9551397148610593  0.7046427147487083   T   T   T
  0.2163232986976809  0.0119152414214156  0.2716744621244148   T   T   T
  0.3675396425503573  0.2353699473569112  0.2660767314267263   T   T   T
  0.1941240195899834  0.1663846265600287  0.4768509470313595   T   T   T
  0.6083600795623977  0.0409235084239230  0.1961367666921563   T   T   T
  0.5086018543011401  0.8137208689361908  0.2841573554359934   T   T   T
  0.6972652535585162  0.9578106849426317  0.4061155545243994   T   T   T
  0.3583277767685745  0.5335030604338158  0.4758423356473649   T   T   T
  0.5484223726965924  0.3671534225379940  0.9708870305765220   T   T   T
  0.6551379470970500  0.6137313521613924  0.9581263205479669   T   T   T
  0.7396578855390756  0.4514748640573572  0.7845474520834312   T   T   T
  0.3290728081673903  0.6962547475477721  0.9231222485471554   T   T   T
  0.2392978200880265  0.4480296724747713  0.9527271162510830   T   T   T
  0.1928409178069887  0.5735403200700595  0.7395600347264696   T   T   T
  0.7508696996070965  0.6670922325473327  0.2982794578398763   T   T   T
  0.9767590177201013  0.8186255864851942  0.0724025344731065   T   T   T
  0.9385880853634970  0.1810450533413826  0.7139173358221828   T   T   T
  0.9611555401843106  0.8260356832163903  0.7029964652951226   T   T   T
  0.9612533221083128  0.1841646112012031  0.0820232828783424   T   T   T
  0.4413842413475526  0.0286534488833947  0.6641388068053349   T   T   T
  0.2942323091716420  0.1179201263677173  0.3677720991801399   T   T   T
  0.5643908261241795  0.9535856557138781  0.3306211144866594   T   T   T
  0.4860664015397398  0.5147046178309201  0.5425825933254933   T   T   T
  0.6132164823246343  0.4858610405262790  0.8692820596807286   T   T   T
  0.2967412072223742  0.5620942238265031  0.8445693524554936   T   T   T
 -0.0173985022209369  0.6909751261390465  0.1852598239303914   T   T   T
  0.9252188394525502  0.3148887123026580  0.5978405626352773   T   T   T
  0.9536184107018604  0.6943543013667135  0.5834512523508264   T   T   T
  0.9332108184815857  0.3074661998832162  0.2046653650518503   T   T   T
  0.4316803933534081  0.0342183042585079  0.4640726149694899   T   T   T
  0.4741471926076969  0.5202816432165088  0.7380014320362140   T   T   T
  0.3387174290835634  0.0960633440038831  0.7937237775630880   T   T   T
  0.6327801998295781  0.4932771014156151  0.4223779085662339   T   T   T
  0.9404518929915456  0.4918634380688058  0.4046034070042218   T   T   T
  0.9787233233147905  0.0078993176195343  0.8913684832861481   T   T   T
 
  0.00000000E+00  0.00000000E+00  0.00000000E+00
  0.00000000E+00  0.00000000E+00  0.00000000E+00
  0.00000000E+00  0.00000000E+00  0.00000000E+00
  0.00000000E+00  0.00000000E+00  0.00000000E+00
  0.00000000E+00  0.00000000E+00  0.00000000E+00
  0.00000000E+00  0.00000000E+00  0.00000000E+00
  0.00000000E+00  0.00000000E+00  0.00000000E+00
  0.00000000E+00  0.00000000E+00  0.00000000E+00
  0.00000000E+00  0.00000000E+00  0.00000000E+00
  0.00000000E+00  0.00000000E+00  0.00000000E+00
  0.00000000E+00  0.00000000E+00  0.00000000E+00
  0.00000000E+00  0.00000000E+00  0.00000000E+00
  0.00000000E+00  0.00000000E+00  0.00000000E+00
  0.00000000E+00  0.00000000E+00  0.00000000E+00
  0.00000000E+00  0.00000000E+00  0.00000000E+00
  0.00000000E+00  0.00000000E+00  0.00000000E+00
  0.00000000E+00  0.00000000E+00  0.00000000E+00
  0.00000000E+00  0.00000000E+00  0.00000000E+00
  0.00000000E+00  0.00000000E+00  0.00000000E+00
  0.00000000E+00  0.00000000E+00  0.00000000E+00
  0.00000000E+00  0.00000000E+00  0.00000000E+00
  0.00000000E+00  0.00000000E+00  0.00000000E+00
  0.00000000E+00  0.00000000E+00  0.00000000E+00
  0.00000000E+00  0.00000000E+00  0.00000000E+00
  0.00000000E+00  0.00000000E+00  0.00000000E+00
  0.00000000E+00  0.00000000E+00  0.00000000E+00
  0.00000000E+00  0.00000000E+00  0.00000000E+00
  0.00000000E+00  0.00000000E+00  0.00000000E+00
  0.00000000E+00  0.00000000E+00  0.00000000E+00
  0.00000000E+00  0.00000000E+00  0.00000000E+00
  0.00000000E+00  0.00000000E+00  0.00000000E+00
  0.00000000E+00  0.00000000E+00  0.00000000E+00
  0.00000000E+00  0.00000000E+00  0.00000000E+00
  0.00000000E+00  0.00000000E+00  0.00000000E+00
  0.00000000E+00  0.00000000E+00  0.00000000E+00
