N    C    H    Cu   Ni   O    Li        
   1.00000000000000     
    23.8186693987291385   -1.0593115560072699    0.4183683781344540
     0.6722770425164007    7.1167039721778949   -0.1871426668836690
    -1.3521771044118180    0.0099717090543084    6.8636347606283756
   N    C    H    Cu   Ni   O    Li
    12    20    40     2     2     4     1
Direct
  0.4819536902771190  0.3251653795112794  0.6967381124360078
  0.4619413612757747  0.9734979747692414  0.2159098946856561
  0.5070598027695531  0.3430437483763172  0.1304301658417913
  0.5117861592450020  0.9223711741285371  0.7896952745002807
  0.0138437685600550  0.6875063882226191  0.8167296416395328
  0.0119182513748943  0.2817579625369113  0.2221293835496852
  0.9937286145221229  0.6803722671583220  0.2028985012045732
  0.9955570835339946  0.2945331389192299  0.8122822803281707
  0.2112924878235967  0.9586771242696006  0.1144951772551841
  0.7551297467267062  0.0508183488631299  0.9229130769068015
  0.7268354626813054  0.4340541673638640  0.0905279317463111
  0.3090384129704638  0.5143799197930654  0.8870926717142616
  0.4950133001740824  0.4453163734804753  0.6059108627601947
  0.4844034900010703  0.8430870667820126  0.2983810888878284
  0.5052135097922353  0.4657940199324010  0.2478265833709732
  0.5079606830092213  0.8074416550138346  0.6634409676461458
  0.0084201631782060  0.8034375196450705  0.7000810788985194
  0.0066457766661565  0.1664802367692583  0.3317091733239695
  0.9986816772422209  0.7998202895847466  0.3234168623344571
  1.0010524631234901  0.1732110694949453  0.6987231854101451
  0.2696201762799307  0.9505899054919515  0.1136423964865602
  0.7274611613839318  0.9713922332327996  0.0504015516486553
  0.7734445499465825  0.3960196566723423  0.9436854991481177
  0.3136978916968006  0.3827843845979935  0.0274590868401469
  0.1904210429003413  0.9241195102888959  0.2939623610209650
  0.7449598366157801 -0.0073505077909563  0.7174602890462811
  0.7461895438744578  0.4552484890558122  0.3001150117273271
  0.2540136894633555  0.5406392022817467  0.7570866837848523
  0.1734331238516405  0.9961495874179362  0.9497392539693735
  0.7971967891849291  0.1894962423482520  0.9893426044499175
  0.6747402176863495  0.4468777725295626  0.0080822498808819
  0.3545040235017521  0.6098530022777880  0.8584659611830922
  0.1606525938066392  0.8097462292788969  0.2691280461123660
  0.7437164610629304  0.1165117386216961  0.6296679226686466
  0.7787958240665822  0.8924462473630512  0.6843866964183369
  0.1682532851733506  0.0500136466694142  0.3442547072900652
  0.7258865305950030  0.3560321529758962  0.3783138046027085
  0.2463803610676703  0.6896668793793600  0.7262616022702902
  0.2544002183680885  0.4581863489536413  0.6210959765899372
  0.7364858054190220  0.5994829060229313  0.3483106492392356
  0.1149039248766050  0.5969612822851198  0.4787234184444058
  0.8809638277196263 -0.0179358855244305  0.4899461624219490
  0.8435645096064486  0.7076326404054860  0.4226634951652709
  0.1164909092830999  0.2343904166959727  0.5546717168114407
  0.6005801184307968  0.1549262832831438  0.4423324843206978
  0.3950550153422032  0.5841102698712300  0.9531548157210056
  0.3400269544418454  0.3421103257713817  0.4973913530848225
  0.6264878492721087  0.6439710528738951  0.5436017880446904
  0.1477175827862087  0.2478987181783864  0.5890910796485261
  0.8205760900116340  0.7785311435869032  0.3837200672043635
  0.8956391215253789  0.0676689494052035  0.5347807361100702
  0.1326481429885381  0.6612093274049593  0.5496233182699712
  0.6566155042732200  0.6070677361847332  0.5772953573704463
  0.3446047616247235  0.4442982364986179  0.5200340560951784
  0.3782400903464982  0.7526227359694099  0.3418794936196296
  0.6320662023502835  0.1440588880539037  0.4423572754050091
  0.1280806544471487  0.9971569962275788  0.9526438452139240
  0.8333883133971922  0.1659212249190762  0.9117797043323576
  0.8123899139164271  0.1737818443953381  0.1455750842511126
  0.1910752632892093  0.0239437392219800  0.8215939926216638
  0.6405910408984957  0.4704792746979631  0.0930310174521461
  0.3478318233159717  0.7172281774155186  0.7512027820085256
  0.3624541011721432  0.6634750870783531  0.3342152750372920
  0.6670271160690866  0.4340934544621667  0.8491546898370914
  0.2268195631563400  0.8845335692506677  0.4061721013275859
  0.7039332183808426  0.9251529794796268  0.6814114807805608
  0.7924511979193487  0.4291855151403292  0.3318468005582841
  0.2196641968581824  0.4939383632899105  0.8268670547546859
  0.2953366997602392  0.9250402896524809  0.2585579118477905
  0.6958667810003153  0.8709117663206171  0.9764630549586695
  0.8070018194796700  0.4927720830336328  0.0169816583777636
  0.2728061597882577  0.3223868624221369  0.0379834709438785
  0.5042170468888494  0.1590941297077441  0.9204819942948732
  1.0016933692552794  0.4866872490432506  1.0118330627891428
  0.5023734544580991  0.6391343412465302  0.4515039112074848
  1.0031199968978537  0.9856044744085674  0.5131502633844079
  0.2900217541749007 -0.0285454612565851  0.9657939525466038
  0.7352583905458427  1.0031591904896702  0.2285114603481365
  0.7505964055353909  0.4266912151091607  0.7662817244190366
  0.3595842865202520  0.3372935379084482  0.1331409997030415
  0.4310416385815670  0.2286987069291607  0.2147337369141032
 
             NaN             NaN             NaN
             NaN             NaN             NaN
             NaN             NaN             NaN
             NaN             NaN             NaN
             NaN             NaN             NaN
             NaN             NaN             NaN
             NaN             NaN             NaN
             NaN             NaN             NaN
             NaN             NaN             NaN
             NaN             NaN             NaN
             NaN             NaN             NaN
             NaN             NaN             NaN
             NaN             NaN             NaN
             NaN             NaN             NaN
             NaN             NaN             NaN
             NaN             NaN             NaN
             NaN             NaN             NaN
             NaN             NaN             NaN
             NaN             NaN             NaN
             NaN             NaN             NaN
             NaN             NaN             NaN
             NaN             NaN             NaN
             NaN             NaN             NaN
             NaN             NaN             NaN
             NaN             NaN             NaN
             NaN             NaN             NaN
             NaN             NaN             NaN
             NaN             NaN             NaN
             NaN             NaN             NaN
             NaN             NaN             NaN
             NaN             NaN             NaN
             NaN             NaN             NaN
             NaN             NaN             NaN
             NaN             NaN             NaN
             NaN             NaN             NaN
             NaN             NaN             NaN
             NaN             NaN             NaN
             NaN             NaN             NaN
             NaN             NaN             NaN
             NaN             NaN             NaN
             NaN             NaN             NaN
             NaN             NaN             NaN
             NaN             NaN             NaN
             NaN             NaN             NaN
             NaN             NaN             NaN
             NaN             NaN             NaN
             NaN             NaN             NaN
             NaN             NaN             NaN
             NaN             NaN             NaN
             NaN             NaN             NaN
             NaN             NaN             NaN
             NaN             NaN             NaN
             NaN             NaN             NaN
             NaN             NaN             NaN
             NaN             NaN             NaN
             NaN             NaN             NaN
             NaN             NaN             NaN
             NaN             NaN             NaN
             NaN             NaN             NaN
             NaN             NaN             NaN
             NaN             NaN             NaN
             NaN             NaN             NaN
             NaN             NaN             NaN
             NaN             NaN             NaN
             NaN             NaN             NaN
             NaN             NaN             NaN
             NaN             NaN             NaN
             NaN             NaN             NaN
             NaN             NaN             NaN
             NaN             NaN             NaN
             NaN             NaN             NaN
             NaN             NaN             NaN
             NaN             NaN             NaN
             NaN             NaN             NaN
             NaN             NaN             NaN
             NaN             NaN             NaN
             NaN             NaN             NaN
             NaN             NaN             NaN
             NaN             NaN             NaN
             NaN             NaN             NaN
             NaN             NaN             NaN
