H    Li   C    N    O    Pt   Pb        
   1.00000000000000     
     7.4178222700558889   -1.2123947164312210    0.3981033216379588
    -0.4443855758521126    7.8823656419251140    0.0441125787980372
    -0.0235069024584539    0.0163329884773648    7.0495223465099714
   H    Li   C    N    O    Pt   Pb
    14     1    10     6     2     1     1
Selective dynamics
Direct
  0.5556999349440528  0.9629723930537540  0.6934409149325014   T   T   T
  0.2149890993190665  0.0249973477127882  0.2763117241114998   T   T   T
  0.3546681502616718  0.2368254173341595  0.2826733518784155   T   T   T
  0.1920065983043590  0.1576850986281439  0.4745134863910344   T   T   T
  0.5735193589030380  0.0537573819469569  0.1981450230247646   T   T   T
  0.5218291764174789  0.8408699144802733  0.3077756835071307   T   T   T
  0.6953983686480109  0.0183580236322706  0.3951098078187922   T   T   T
  0.3429377610280593  0.5455953217423952  0.5020641523170241   T   T   T
  0.5477764084725063  0.3709326861122476  0.9681993072119689   T   T   T
  0.6599746583853985  0.5910389407365936  0.9565559838662996   T   T   T
  0.7278269478354471  0.4453118787128296  0.7914859256811460   T   T   T
  0.3390759026126252  0.6708145658026173  0.9269475276135514   T   T   T
  0.2500229951199086  0.4418454562722295  0.9526708511497445   T   T   T
  0.2006541291251133  0.5594563698221855  0.7494702439942614   T   T   T
  0.7847319040130123  0.7713835767972791  0.3894444280472396   T   T   T
  0.9608796453109874  0.7858905991506580  0.1133403622243556   T   T   T
  0.8857766275648440  0.1907356926392464  0.6938646409551490   T   T   T
  0.9367524220268620  0.7874755896860247  0.6476512426969550   T   T   T
  0.9273472859527712  0.1949262950798515  0.0925994841102922   T   T   T
  0.4467834432282158  0.0351509502588854  0.6526003283419145   T   T   T
  0.2915131992785500  0.1230995407612177  0.3707577969357575   T   T   T
  0.5602242170575070  0.9836328492058597  0.3335760906220530   T   T   T
  0.4726609656207833  0.5237157408803345  0.5550956234778953   T   T   T
  0.6109753525114542  0.4785435742534114  0.8689666635750297   T   T   T
  0.3056751146745963  0.5482594458923642  0.8490454716165464   T   T   T
  0.9811007647270704  0.6596407167170855  0.1921346437458717   T   T   T
  0.9310890584778554  0.3060483963518841  0.5834889001493497   T   T   T
  0.9710750514734713  0.6649462364213991  0.5715802793202526   T   T   T
  0.9438804753764803  0.3063057640945043  0.2044641878864672   T   T   T
  0.4294213346933409  0.0446658830991870  0.4628438182737644   T   T   T
  0.4692183923430425  0.5148157246873184  0.7460188177263815   T   T   T
  0.3703100347151536  0.1007395866714544  0.7818691276963540   T   T   T
  0.6075120723071865  0.5229769428492700  0.4383572824019669   T   T   T
  0.9646297088057124  0.4822867300469104  0.3871469925968470   T   T   T
  0.0533384404643654  0.0123063684664100  0.8661078341014264   T   T   T
 
  0.00000000E+00  0.00000000E+00  0.00000000E+00
  0.00000000E+00  0.00000000E+00  0.00000000E+00
  0.00000000E+00  0.00000000E+00  0.00000000E+00
  0.00000000E+00  0.00000000E+00  0.00000000E+00
  0.00000000E+00  0.00000000E+00  0.00000000E+00
  0.00000000E+00  0.00000000E+00  0.00000000E+00
  0.00000000E+00  0.00000000E+00  0.00000000E+00
  0.00000000E+00  0.00000000E+00  0.00000000E+00
  0.00000000E+00  0.00000000E+00  0.00000000E+00
  0.00000000E+00  0.00000000E+00  0.00000000E+00
  0.00000000E+00  0.00000000E+00  0.00000000E+00
  0.00000000E+00  0.00000000E+00  0.00000000E+00
  0.00000000E+00  0.00000000E+00  0.00000000E+00
  0.00000000E+00  0.00000000E+00  0.00000000E+00
  0.00000000E+00  0.00000000E+00  0.00000000E+00
  0.00000000E+00  0.00000000E+00  0.00000000E+00
  0.00000000E+00  0.00000000E+00  0.00000000E+00
  0.00000000E+00  0.00000000E+00  0.00000000E+00
  0.00000000E+00  0.00000000E+00  0.00000000E+00
  0.00000000E+00  0.00000000E+00  0.00000000E+00
  0.00000000E+00  0.00000000E+00  0.00000000E+00
  0.00000000E+00  0.00000000E+00  0.00000000E+00
  0.00000000E+00  0.00000000E+00  0.00000000E+00
  0.00000000E+00  0.00000000E+00  0.00000000E+00
  0.00000000E+00  0.00000000E+00  0.00000000E+00
  0.00000000E+00  0.00000000E+00  0.00000000E+00
  0.00000000E+00  0.00000000E+00  0.00000000E+00
  0.00000000E+00  0.00000000E+00  0.00000000E+00
  0.00000000E+00  0.00000000E+00  0.00000000E+00
  0.00000000E+00  0.00000000E+00  0.00000000E+00
  0.00000000E+00  0.00000000E+00  0.00000000E+00
  0.00000000E+00  0.00000000E+00  0.00000000E+00
  0.00000000E+00  0.00000000E+00  0.00000000E+00
  0.00000000E+00  0.00000000E+00  0.00000000E+00
  0.00000000E+00  0.00000000E+00  0.00000000E+00
