N    C    H    Ag   Cd   O    Li
   1.00000000000000     
  19.3387098687833010  -0.1231850502708900   1.3896245778179401
   0.0211067136470382   8.5375733104258309   0.8830064014852130
  -1.8417423879029000   0.7814965152810150   7.4643034903677901
N    C    H    Ag   Cd   O    Li
12  20  40  2  2  4  1  
Direct
  0.4585813172868404  0.1944896698780152  0.6781652498366952  
  0.4501055487704211  0.7927559658857604  0.0640722409971374  
  0.6592440643800924  0.3842490922709367  0.3531691916571989  
  0.5421134310079686  0.8074167761667557  0.7264677275917824  
  0.0137805518215987  0.7213700231136247  0.6580363172090203  
  0.0210987337800776  0.2290300686513762  0.1017451823164486  
  0.0043941833282173  0.7210595576067060  0.1304054666260372  
  0.9340801905958350  0.1731664664671083  0.6837071231256764  
  0.2772046195089554  0.0439975847308999  0.2334793687794993  
  0.7293559358271050  0.9882512102109692  0.8486665917183278  
  0.8137731827301763  0.4963022960414105  0.1799557215653649  
  0.2368609293059441  0.5202050375823877  0.7970677809329693  
  0.4671327734003990  0.3192334945683833  0.5918872285075015  
  0.4600918093130327  0.6945397279555061  0.1956537401004998  
  0.6096888566627006  0.4416318722435487  0.3881516247206132  
  0.5331057326990780  0.7109870649856048  0.6372282825663821  
  0.9959239239227970  0.5919102170861255  0.7104842546863517  
  0.0290978352671272  0.1400006421827678  0.2406030486445300  
  0.9799938265407260  0.7866091717281850  0.2262143198017131  
  0.9380843688767608  0.0838470995785395  0.5888803732764235  
  0.3021978621141007  0.0434991349616097  0.0747899769337740  
  0.7153738518687531  0.8359871905661463  0.9094593125907368  
  0.8606682980979004  0.4206480383058568  0.1079120070575332  
  0.1707748814016581  0.5307347162246014  0.8355085400319163  
  0.3252024666082798  0.9958853648124026  0.4043969397571515  
  0.6709417310165029  0.0940555028671148  0.7383639058671320  
  0.8281669394914414  0.5113415079513527  0.3677246111638073  
  0.2477532231027758  0.4289845394096822  0.6611474942256093  
  0.2098542440440483  0.0866131754107232  0.2320341972143255  
  0.7933190580725367  0.0486115947279183  0.8836657631261368  
  0.7522951698520519  0.5709010906875489  0.0688576356952592  
  0.2925428828123448  0.5883013496682812  0.8814693323053862  
  0.3058933341384059  0.8910988133014349  0.4864083681995677  
  0.6590081873818074  0.1840612862167712  0.8127326074598901  
  0.6866761928732816  0.1523959637887909  0.6122820683421333  
  0.3296493643359134  0.0930237929544796  0.4783709024054392  
  0.7834492245850524  0.4694041312591579  0.4318831406260031  
  0.2771052006941536  0.4995374277018294  0.5657538757290907  
  0.2760929332365904  0.3159271730277279  0.7260170305206858  
  0.8376272128934185  0.6355599718433241  0.3781305726882208  
  0.1786260482581602  0.8778700122723470  0.6194278393228151  
  0.7035285416840829  0.0590857888358762  0.2027275931009378  
  0.8142782636057392  0.9184874916589584  0.5385651281985071  
  0.0940977179555172  0.1639198732565781  0.7439304054897453  
  0.5817735197308257  0.3704499333627685  0.9138654064859534  
  0.2697996804419195  0.6935178703139651  0.2891185325956026  
  0.3440189457120798  0.3698432041074516  0.3218840298558018  
  0.7022288814429085  0.6094606479168143  0.6057049645836333  
  0.1323724172315122  0.1398144507147985  0.7707925408904621  
  0.7826134263341874  0.8795427798375819  0.4981637528527806  
  0.6922274841746662  0.1343296454857712  0.2276812785266003  
  0.1995881815757045  0.9148013898807548  0.6912607164269281  
  0.7382966849795342  0.6280325045755593  0.6477302768054063  
  0.3114412376503503  0.3889724307758205  0.2522429281324176  
  0.2351262840111962  0.6852339338800679  0.2320115364071055  
  0.5995493867916281  0.3595962351655895  0.0104654581380929  
  0.1752072178503737  0.1195285315700927  0.1037586827898985  
  0.8364509369404332  0.9701547175908908  0.9609922838967664  
  0.7996068748557876  0.1737493483554448  0.8313102480938132  
  0.1927159673409029  0.0848270628367004  0.3589110353495388  
  0.7405444979989431  0.5207575133502435  0.9479045770005292  
  0.3436169316472708  0.5715407486043597  0.8469510228009793  
  0.2837968723609453  0.6560380789684790  0.9805033914190202  
  0.7085163426523964  0.5642105880254528  0.1429911293960112  
  0.3770788847702883  0.9669027772278616  0.3783289297378889  
  0.6249020160298590  0.0234728957055642  0.7112807284418891  
  0.8749571747661820  0.4380962781147282  0.4363943694899936  
  0.1967191892318521  0.4039364109133171  0.5887877761719881  
  0.3580072060817218  0.0053850959874968  0.0978895184655053  
  0.6624996680780477  0.7951191358956603  0.8739168528607724  
  0.9071451300587446  0.3697311147808262  0.2076157883340961  
  0.1316549462612759  0.4711831757271894  0.7530934018380891  
  0.4637088627688767  0.9706441525037336  0.8457945710596537  
  0.9758923768288472  0.3647473273225720  0.8321115439004901  
  0.5134213253942381  0.5395044005793629  0.4532435209649587  
  0.9835744577418772  0.9425840622832602  0.4244435644233124  
  0.2654294908434471  0.0809407850347806  0.9247145356705946  
  0.7672155664016322  0.7427137337881419  0.0096159389540938  
  0.8527507452960719  0.4075276754178498  0.9493259781286638  
  0.1556763315457235  0.6015097411559677  0.9521161479889976  
  0.0620602633983970  0.6580815271355991  0.9678429285914047  
