N    C    H    Cu   Ni   O    Li
   1.00000000000000     
  22.3992308084072000   0.5643351044704430   0.6203025578680930
  -0.4111786600412080   6.9912882535093699  -0.0857305037422006
  -0.9832933337539810  -0.2030110932320210   6.8254315659467002
N    C    H    Cu   Ni   O    Li
12  20  40  2  2  4  1  
Direct
  0.4847445804057862  0.3356718328900842  0.7020444067429147  
  0.4528047562560545  0.9846937913241141  0.2185032680993218  
  0.5129791428738495  0.3648785260588890  0.1339517951896523  
  0.5191377495770456  0.9426434322406392  0.7989749025811298  
  0.0129848499230667  0.6521870122671080  0.8025451259711904  
  0.0135563655398601  0.2602259486535252  0.1985450042577638  
  0.9875571687058858  0.6564371855891171  0.1942977083750923  
  0.9588225313744622  0.2710688199791731  0.8035300127344582  
  0.2006949541100541  0.9741959165012778  0.0546213058334228  
  0.7526475799821257  0.0535675140286005  0.9291673088409008  
  0.7295018053947361  0.4431612938635207  0.0874400826459846  
  0.3150993662022853  0.4841349597800402  0.8715555899131552  
  0.4988581297946172  0.4636128558327091  0.6089576476049954  
  0.4794332216924573  0.8634093320319759  0.2997637141636412  
  0.5088286823502440  0.4914549897191302  0.2484259646119205  
  0.5124249185095470  0.8309093325515525  0.6668493846939277  
  0.0062046954992064  0.7789912117667478  0.6955466607494574  
  0.0061098052374220  0.1528109622729954  0.3218492477564504  
  0.9931707651421464  0.7786168036496557  0.3161014628730501  
  0.9654935137576665  0.1477938631492127  0.6830500795747478  
  0.2421283242016469  0.9434375667630328  0.9231016852931948  
  0.7207219927318573  0.9721183340121430  0.0620793042138302  
  0.7805688936283534  0.4052075374235283  0.9384486112325444  
  0.3096504889637409  0.3733055187275039  0.0290782780584701  
  0.2198895127827117  0.9579975670102908  0.2638641617894821  
  0.7413613261212740  0.9922447305265960  0.7231741658139618  
  0.7478254953911090  0.4813687978978524  0.2955385821052040  
  0.2632596948946795  0.4904049326399988  0.7207672314855906  
  0.1433109922131034  0.0189623891350536  0.9945104997116240  
  0.8000741620174582  0.1962687653136400  0.9890359603063900  
  0.6751331999785550  0.4367145283488391  0.0080703975348853  
  0.3674293482068255  0.5775300044356221  0.8446897464410793  
  0.1935292158429172  0.8438920287713092  0.3233347322401487  
  0.7482171795913365  0.1156252406276164  0.6338813159763926  
  0.7712625462806076  0.8773364882535513  0.6891663355989204  
  0.2129889840830885  0.0922841468972147  0.3430911255072737  
  0.7241525905000743  0.3846545868331565  0.3848071541949509  
  0.2571983324146181  0.6376991695704360  0.6756763743159592  
  0.2707412890354786  0.3979876244168322  0.5948783477277694  
  0.7387468677777285  0.6303740174056064  0.3332437585287271  
  0.1185286625079397  0.6161088609359001  0.4630423379164966  
  0.8822009214115357  0.5168913918505588  0.5508470823674317  
  0.8554660135671933  0.8486240300363238  0.4170483524215198  
  0.1230551541625966  0.2538259960723213  0.5300103458411585  
  0.6033384560625149  0.1583451300001764  0.4374391113898852  
  0.4058944515762099  0.5694618451363164  0.9544502982708843  
  0.3458649582787494  0.1147391674106901  0.5871125870387432  
  0.6284003753204440  0.6336605435082404  0.5499217858707123  
  0.1489995869813830  0.1977707811857354  0.5736341478667601  
  0.8284737146253333  0.9083521899922192  0.3920501258051180  
  0.9260376739502232  0.0648295441743996  0.5914609577152237  
  0.1397376640161321  0.6751865721000103  0.5353442936165341  
  0.6601148834253228  0.6061520954546986  0.5826008050736926  
  0.3771456115246294  0.1560811562966746  0.6153722580814028  
  0.3388461991460393  0.6634739463239803  0.3640316238561693  
  0.6312519801900816  0.1183940718830145  0.4037316483122654  
  0.1123722975666614  0.0401960203176505  0.1025993927558417  
  0.8389339776191269  0.1703344122255527  0.9092636967813836  
  0.8139330690974163  0.1849314168082209  0.1458439357378908  
  0.1298009071389576  0.0243229310330701  0.8387346592282242  
  0.6377658867701455  0.4555659745350700  0.0945417567176228  
  0.3689624916091179  0.6563564567665088  0.7128082468531450  
  0.3569473500943128  0.7561305515389707  0.3735783757106071  
  0.6687313266093440  0.4131127792385904  0.8492585108240180  
  0.2676103666190373  0.9261559954738062  0.2855942098328037  
  0.6946363239741481  0.9392110770968192  0.6891458736550417  
  0.7962804310421431  0.4622333701590985  0.3262998515773964  
  0.2226772571014929  0.4379668386620439  0.7796343997611771  
  0.2868223570914848  0.9082053438097872  0.9953311568322204  
  0.6852577567698195  0.8691444638012648  0.9921092165193344  
  0.8170918046855274  0.5071628884243056  0.0093713624642515  
  0.2634297781294836  0.3181945449642328  0.0367236303278437  
  0.5107484367815979  0.1779688476998426  0.9302464865380556  
  0.9947923697698596  0.4559622818696379  0.9949184076206714  
  0.5042307833572972  0.6648396221788575  0.4515149078935396  
  0.9959244635095452  0.9690673712841196  0.5092485769757229  
  0.2303592988212295  0.9547452988409988  0.7437950841007078  
  0.7286857532615844  0.0044115507941468  0.2415737137472275  
  0.7597144369241550  0.4310100654165770  0.7598063876267469  
  0.3524225047916266  0.3390921825911978  0.1549805774345357  
  0.4271572101092551  0.2456408182029113  0.2339514257276996  
