N    C    H    Ge   Cu   O    Li
   1.00000000000000     
  15.9236103150598005   0.1262710874074070  -0.5265201975534750
   0.0596563602744045   7.8058190674524397  -0.0165609723992950
  -2.1850011024526799  -0.0306488517465343   7.0402598890499997
N    C    H    Ge   Cu   O    Li
12  20  40  2  2  4  1  
Direct
  0.4602237744760251  0.2166739914237981  0.7536920237415144  
  0.5384953902078570  0.7843636572647533  0.2461724279239343  
  0.5383213059163708  0.2156809960930426  0.2443840517990389  
  0.4593046999339052  0.7841793154102717  0.7542946167500421  
  0.9615392520669522  0.7154337749351861  0.7601726783708895  
  0.0388163508647269  0.2795133645681389  0.2401416615641964  
  0.0426384374247319  0.7134070237551220  0.2636923013187093  
  0.9627403083984962  0.2917205668844466  0.7632389874981033  
  0.2723607325191946  0.0032681948851741  0.2025262657799395  
  0.7287062917310309  0.0010822768947226  0.7938582221968450  
  0.7706988239094695  0.4997159315283508  0.2054814126197031  
  0.2291428164355873  0.5008548018909386  0.7960694182428192  
  0.4865290780427615  0.3227606330595228  0.6746525382453096  
  0.5142017514813039  0.6773144645604733  0.3267083239762921  
  0.5146838413750602  0.3224758060419553  0.3278722527580986  
  0.4870604411217856  0.6788931134431209  0.6747472304264540  
  0.9924320908134188  0.8225651081636310  0.6896025917370466  
  0.0181395255655295  0.1720952287081952  0.3280383594576065  
  0.9978786482243360  0.8099249631811114  0.3227494487356450  
  0.9817311817107640  0.1820999899046410  0.6736109127283276  
  0.3504518123733479  0.9987798602717712  0.1685776009978925  
  0.6534674327497328  0.0000416677191587  0.8362865733547241  
  0.8459908343735812  0.4986365895490479  0.1627786408874657  
  0.1526855518461660  0.5015517161145779  0.8363173687580978  
  0.2697646532610005  0.0035172796063589  0.4002644293696587  
  0.7323536476171525  0.0002753712726331  0.5987058524793943  
  0.7675470861204567  0.5003609302261621  0.4014366599848287  
  0.2324084306360473  0.4995502906471904  0.6000025694118872  
  0.1892469998848861  0.0004317470499688  0.0487210980061980  
  0.8110352664527630  0.0000947290975029  0.9441961453864064  
  0.6878325560901535  0.4995008036580450  0.0562382560390081  
  0.3117599371947110  0.5005218178440977  0.9454167968042840  
  0.2359835319536160  0.8873042659057648  0.4232090724126665  
  0.7680525666448066  0.1138804409459028  0.5785930259614293  
  0.7687713905553192  0.8850515119571515  0.5781425976415627  
  0.2327300316955461  0.1170898039555957  0.4239314480755383  
  0.7319424912876202  0.3865228397469660  0.4218356520580094  
  0.2680935271345191  0.6130360383587431  0.5792368348664348  
  0.2689720196110164  0.3846532708475351  0.5787228534933407  
  0.7311494348802441  0.6151167902282978  0.4232660371187266  
  0.1553518622451510  0.8256953760488643  0.6286187667152601  
  0.8451493554894013  0.1715128054506776  0.3670297351660430  
  0.8448061544178810  0.8285823686922851  0.3666875851602638  
  0.1559191062187124  0.1723701423731722  0.6293857080477073  
  0.6548299305526956  0.3292455534287978  0.6330121982837305  
  0.3449712812934911  0.6716503346201613  0.3670553886422079  
  0.3452769194267173  0.3293350981794304  0.3672559927693994  
  0.6547390932153817  0.6712060778684380  0.6335478899781010  
  0.1913331099322251  0.1469480405971131  0.7217168161856836  
  0.8057104074500615  0.8505246907284393  0.2802664753452296  
  0.8062151607049556  0.1490009178633975  0.2804076371201610  
  0.1922127259935569  0.8539018113284391  0.7161955504022408  
  0.6942122815647842  0.6499665589835015  0.7195207001320243  
  0.3061810654100120  0.3506525429786601  0.2805148846360409  
  0.3063238422904619  0.6488473836097673  0.2804757732710073  
  0.6939501633588953  0.3507570661878331  0.7190668437934700  
  0.1530230001986825  0.1231524429307556  0.0111754560840588  
  0.8446978509307761  0.8770914160050076  0.9866303128252868  
  0.8442979424618229  0.1218191936897412  0.9862249342308472  
  0.1740899738660128  0.8833021009440795  0.9592456205312648  
  0.6547507463285576  0.6228130693134332  0.0135514443436028  
  0.3450135148397656  0.3771578968176055  0.9865837587598140  
  0.3448875561839733  0.6229172295332684  0.9860660711034080  
  0.6550770936492346  0.3773280327643661  0.0138946689607840  
  0.3371926802838992  0.0026459869959955  0.5059397162760353  
  0.6644775109126162  0.0007685588094902  0.4974019762912018  
  0.8355683262549609  0.4997314340305244  0.5031564211604406  
  0.1646755248731136  0.4996068420824039  0.4978043344038612  
  0.4114681269186360  0.9964743125564348  0.2974339336181941  
  0.5920429291625841  0.0003466450200192  0.7091015680241998  
  0.9073579579235710  0.4984546352526069  0.2889665869825341  
  0.0927161086348150  0.4994568307908234  0.7064020630677338  
  0.4967294281490507  0.9980313240064780  0.9984813240016333  
  0.9968280559483328  0.4906348346756859  0.9966318733012386  
  0.5006567471526863  0.5004467435919230  0.5015780825376885  
  0.9979410460324268  0.0007392368675210  0.5033975692117022  
  0.3551360656556594  0.9983774402448038  0.0001470365333943  
  0.6526556521058219  0.9998489859216170  0.0060836939627841  
  0.8481334065540195  0.4976706793194635  0.9933780517289876  
  0.1479121896417659  0.5054401857712599  0.0022265408611289  
  0.0906242135820580  0.8790760810642919  0.1316737741603963  
