H    Li   C    N    O    Hg   Pt        
   1.00000000000000     
     7.5138612143984407   -1.0386930994806294    0.3655728444410063
    -0.3541233692606122    7.3928131532519030    0.1636015621348772
    -0.0511840978341961    0.1244423750529454    7.1981405739849915
   H    Li   C    N    O    Hg   Pt
    14     1    10     6     2     1     1
Selective dynamics
Direct
  0.6106778856539835  0.9222149896964839  0.6188577799214625   T   T   T
  0.1986433581787531  0.0303926227320723  0.3126886732653664   T   T   T
  0.3359668980385745  0.2484885801645778  0.3420137654266283   T   T   T
  0.2186658023509510  0.1212686432809083  0.5400804814471083   T   T   T
  0.6275309010875255  0.1157356430051916  0.2202612275335008   T   T   T
  0.4593489652488301  0.9247011970722829  0.1715849616035390   T   T   T
  0.6385821012409809 -0.1060617414690177  0.3196600004953983   T   T   T
  0.3948300114824254  0.5857031154382472  0.5048247961226778   T   T   T
  0.4957657004624142  0.3016600887248098  0.9530361965945381   T   T   T
  0.5762394137378540  0.5322122083623382  0.0244216847153730   T   T   T
  0.6904849693098610  0.4385029563036099  0.8400725287462154   T   T   T
  0.3306330387819062  0.7014846565757366  0.9273230657656903   T   T   T
  0.1976089193011686  0.4722871835392186  0.9139759937948662   T   T   T
  0.2197732605737931  0.6308272107440323  0.7210604251999740   T   T   T
  0.8378457574193305  0.5270299155979103  0.4265258603852151   T   T   T
  0.9408144630725088  0.8355801907140906  0.0803228230536226   T   T   T
  0.9595554866475490  0.2364329326150935  0.7008449431665154   T   T   T
  0.9307854410613413  0.8532046163027286  0.6987947657922590   T   T   T
  0.9592412221296259  0.2177861525509555  0.0840050963337547   T   T   T
  0.4928113674414199 -0.0104809707816969  0.6171131994776817   T   T   T
  0.2898005209969289  0.1091198145039475  0.4073601460936330   T   T   T
  0.5474352084163352  0.9856972356402506  0.2794865340524601   T   T   T
  0.4849509553391769  0.5120594779147437  0.5891635007713095   T   T   T
  0.5592506399826110  0.4423901280999761  0.9061479901456652   T   T   T
  0.2913725716202668  0.5842071301990126  0.8384933853177103   T   T   T
  0.9251562932748758  0.7140215793672525  0.1938123279501446   T   T   T
  0.9631914342835004  0.3570957536823516  0.5897869387724490   T   T   T
  0.9099325058567943  0.7413307742653543  0.5871944623724732   T   T   T
  0.9492071509284690  0.3281812139216861  0.1956337445354412   T   T   T
  0.4398838368191201  0.0191085541674370  0.4414404377577976   T   T   T
  0.4487213737491662  0.5151782104904870  0.7712932471326474   T   T   T
  0.4175872543406578  0.0267363090432796  0.7630323878412304   T   T   T
  0.5987573428439947  0.4384040076572914  0.5086177174355844   T   T   T
  0.1861154880010639  0.5688471006498217  0.2954641208235167   T   T   T
  0.9541074603262439  0.0366595192275394  0.8919227901565502   T   T   T
 
  0.00000000E+00  0.00000000E+00  0.00000000E+00
  0.00000000E+00  0.00000000E+00  0.00000000E+00
  0.00000000E+00  0.00000000E+00  0.00000000E+00
  0.00000000E+00  0.00000000E+00  0.00000000E+00
  0.00000000E+00  0.00000000E+00  0.00000000E+00
  0.00000000E+00  0.00000000E+00  0.00000000E+00
  0.00000000E+00  0.00000000E+00  0.00000000E+00
  0.00000000E+00  0.00000000E+00  0.00000000E+00
  0.00000000E+00  0.00000000E+00  0.00000000E+00
  0.00000000E+00  0.00000000E+00  0.00000000E+00
  0.00000000E+00  0.00000000E+00  0.00000000E+00
  0.00000000E+00  0.00000000E+00  0.00000000E+00
  0.00000000E+00  0.00000000E+00  0.00000000E+00
  0.00000000E+00  0.00000000E+00  0.00000000E+00
  0.00000000E+00  0.00000000E+00  0.00000000E+00
  0.00000000E+00  0.00000000E+00  0.00000000E+00
  0.00000000E+00  0.00000000E+00  0.00000000E+00
  0.00000000E+00  0.00000000E+00  0.00000000E+00
  0.00000000E+00  0.00000000E+00  0.00000000E+00
  0.00000000E+00  0.00000000E+00  0.00000000E+00
  0.00000000E+00  0.00000000E+00  0.00000000E+00
  0.00000000E+00  0.00000000E+00  0.00000000E+00
  0.00000000E+00  0.00000000E+00  0.00000000E+00
  0.00000000E+00  0.00000000E+00  0.00000000E+00
  0.00000000E+00  0.00000000E+00  0.00000000E+00
  0.00000000E+00  0.00000000E+00  0.00000000E+00
  0.00000000E+00  0.00000000E+00  0.00000000E+00
  0.00000000E+00  0.00000000E+00  0.00000000E+00
  0.00000000E+00  0.00000000E+00  0.00000000E+00
  0.00000000E+00  0.00000000E+00  0.00000000E+00
  0.00000000E+00  0.00000000E+00  0.00000000E+00
  0.00000000E+00  0.00000000E+00  0.00000000E+00
  0.00000000E+00  0.00000000E+00  0.00000000E+00
  0.00000000E+00  0.00000000E+00  0.00000000E+00
  0.00000000E+00  0.00000000E+00  0.00000000E+00
