N    C    H    Ge   Cu   O    Li
   1.00000000000000     
  15.9765202752109001   0.0530494401459644   0.5441332781376160
   0.0273884839429669   7.4644394368109301  -0.1313503740212190
  -1.7266938344585099  -0.1288623954953040   6.9410662171569202
N    C    H    Ge   Cu   O    Li
12  20  40  2  2  4  1  
Direct
  0.4844927161257096  0.1875159145158790  0.8032914237970527  
  0.5249794010235680  0.8163509888663659  0.2006861562924226  
  0.5169908045908285  0.1931485096351722  0.1967784984705704  
  0.4733629750618433  0.8113168452781504  0.7889397666214567  
  0.9796744420298714  0.6847428684772108  0.7983441479689561  
  0.0223071694067222  0.3129690911784287  0.2005757966509419  
  0.0266312549626268  0.6929255760966259  0.2119671319501406  
  0.9834676173491248  0.2915230535097502  0.7921696373930079  
  0.2757050560386478  0.9921248603795240  0.1885749414812262  
  0.7249919471955266  0.0019695675692392  0.8090088871122600  
  0.7741778844861116  0.4975132717722648  0.1921946676913178  
  0.2253860060884148  0.4998455600350529  0.8066917950806590  
  0.5009217162817906  0.3058559889119884  0.7107118970692925  
  0.5424299407159794  0.7115181334051354  0.3234003940494621  
  0.5011078630018817  0.3144266247806700  0.2946101246796692  
  0.4641760783890823  0.6990108495324867  0.6650273826012469  
  0.9446086633967488  0.7796138480429240  0.6764256479135657  
  0.9993598147873890  0.2002516568525521  0.2904118673234434  
  0.0264751645310114  0.8053152562901577  0.3325418456719461  
  0.0022431929055684  0.1686680566891987  0.7012126855061702  
  0.3539384261412463  0.9982703470019000  0.1592516313966569  
  0.6465409341701729  0.9950879091410670  0.8345389448466495  
  0.8516214488718330  0.5020200692944905  0.1622348890913896  
  0.1469955122483027  0.4984589381866001  0.8351056566081836  
  0.2682518424392717  0.9990399126850190  0.3897503055310489  
  0.7358925379169181  0.0010043188180452  0.6091313876152312  
  0.7635132149652472  0.4991564475814621  0.3910711965087233  
  0.2362720224544107  0.4964724611717696  0.6074598080806776  
  0.1934919286878214  0.9894620483400840  0.0522247936075064  
  0.7996868837531520  0.0041110328893820  0.9615614303690050  
  0.6995526598764233  0.4964159293429581  0.0397324268729280  
  0.2991448617434800  0.5022885629007205  0.9615741368421225  
  0.2333233536525489  0.8797597637535248  0.4159433391898416  
  0.7716989807398054  0.1202304301836165  0.5874614888432316  
  0.7717572685169038  0.8813910349248638  0.5805848624525478  
  0.2318170116957992  0.1193437220964298  0.4145803360345600  
  0.7272676679113218  0.3804387018056096  0.4127527041404380  
  0.2733150178185616  0.6135583788471888  0.5848851628321737  
  0.2718384443653626  0.3758125159198024  0.5818740829279712  
  0.7283750566379982  0.6199888715601910  0.4191655192996930  
  0.1652432889974710  0.8261631558924454  0.6216860084260836  
  0.8428176568292421  0.1745898277180768  0.3723270731560905  
  0.8402552977928884  0.8275513633055308  0.3626686281973993  
  0.1593274591279429  0.1630286804014490  0.6305668816393335  
  0.6561364209335987  0.3262916803023310  0.6301778053385738  
  0.3422788914820414  0.6707448024928614  0.3639567057473455  
  0.3432746027084414  0.3264339528077381  0.3660379532542002  
  0.6563780216061145  0.6712504886313181  0.6358287119491354  
  0.1876415410791936  0.1418109500319973  0.7261968491995682  
  0.8113295027715108  0.8530597699845412  0.2697784613887347  
  0.8135671751638426  0.1423584378925307  0.2798350677509795  
  0.1961560308227012  0.8439463712695654  0.7180840769309462  
  0.6874436039207030  0.6487052084065617  0.7267006051234347  
  0.3105999345638870  0.3541956013187539  0.2796729431240255  
  0.3115749182308722  0.6457995045056336  0.2708838675179710  
  0.6877237092057552  0.3552144213406905  0.7201275612853320  
  0.1672347517107711  0.1265172598080873  0.0658543822756915  
  0.8349794242917626  0.8767152981424423  0.9723598683476484  
  0.8391198228445361  0.1239084584886445  0.9619934968079508  
  0.1534309294361925  0.9043625769932956  0.1233426388575112  
  0.6643332602882042  0.6234886868476706  0.0303102431044508  
  0.3356549837913523  0.3768374296610489  0.9679181270520130  
  0.3377374955684721  0.6237517000419027  0.9644494476268820  
  0.6603622244297204  0.3756610856640408  0.0352943269447689  
  0.3308581752591607  0.0023236015044888  0.4894819791013288  
  0.6732785149104626  0.0009450743504985  0.5082390330831830  
  0.8260757175351795  0.4987199111709034  0.4913869798136010  
  0.1741288868014437  0.4961951923741364  0.5052589336808593  
  0.4036506458915939  0.0043610893447429  0.2904323453591007  
  0.5975318019541540  0.9942137461737310  0.7034434460720276  
  0.9020467419730024  0.5038486886805158  0.2910267994134737  
  0.0973182131014770  0.4961003305345837  0.7051476183214903  
  0.5000370863092464  0.9962813434047449  0.9978979629310450  
  0.9999963408427620  0.4987695654121822  0.9998538967661100  
  0.4982669709286592  0.4950696096196930  0.5053524243808565  
  0.0012248696783371  0.0158204312717888  0.4748126549721879  
  0.3769470640606757  0.9977287669702950  0.9951242494672360  
  0.6233480499680119  0.9930084316362811  0.9977006753571690  
  0.8716318020249935  0.5032891754877187  0.9953111442682100  
  0.1259187334934451  0.5000364110260508  0.9998805477842850  
  0.1063747070662605  0.9354538763626126  0.8055087499480754  
