N    C    H    Ag   Be   O    Li
   1.00000000000000     
  19.5115764662119986  -0.1225441793730950   0.9357033298334470
   0.0022342044998626   8.0807742013488593   0.9154034398072211
  -2.0595583981961401   0.8631958149348180   6.7300806660679804
N    C    H    Ag   Be   O    Li
12  20  40  2  2  4  1  
Direct
  0.4533402748574727  0.1885398215708474  0.7482971309522013  
  0.4359834496115373  0.7478749063812206  0.1506280013845052  
  0.6248423919694309  0.3840761444028157  0.4453573515481489  
  0.5179566569491095  0.7599766388146482  0.7814640751473995  
  0.9865289555232342  0.6029447278805231  0.8065488014877420  
  0.9408136693418772  0.1604528941838791  0.1548764954908684  
  0.0825115248721679  0.7639622605892343  0.2928724559418960  
  0.0319783195822307  0.1642287988104666  0.7806715767182887  
  0.2816508936387421  0.0509239975850565  0.2521262661026927  
  0.7176846414322602  0.9656687342925012  0.7433275295058770  
  0.7804604944007575  0.5145835322203607  0.2446942997837899  
  0.2261200680490942  0.5335957149076439  0.7721284276507848  
  0.4629689558940147  0.3210954212309676  0.6547019123438357  
  0.4517013867286802  0.6416521217910166  0.2988612403129792  
  0.5752687172623754  0.4348055047889269  0.4848665999279512  
  0.5132444744648051  0.6538186827011332  0.6922734034809834  
  0.9844759936121644  0.7305641211164172  0.6873688556850129  
  0.9540304472654518  0.0549078039765768  0.3040566989285605  
  0.0633157795007362  0.8277773315050080  0.4047443874973745  
  0.0315324421234114  0.0630387040462333  0.6860593277110748  
  0.3197425968442165  0.0822830664316166  0.1037351269108283  
  0.6712683422200736  0.9578056412802298  0.8694605925159551  
  0.8363104391372472  0.5272525377833542  0.1490278343108085  
  0.1656581732923609  0.5434685489888186  0.8338097532700542  
  0.3215319163911624  0.0018477476424641  0.4622027533208261  
  0.6879098407131377  0.0079308516334479  0.5258863150976809  
  0.7974397248564937  0.4458428925289561  0.4621593585422542  
  0.2246956633996827  0.4503894163909347  0.6081532348050321  
  0.2111799239877021  0.0618759398488713  0.2024627431597093  
  0.7866877185733079  0.9291093821499106  0.8212639746705449  
  0.7147663275475368  0.5671334751031232  0.1417686508397455  
  0.2875985345623437  0.5961085676639662  0.8566273612443842  
  0.3026664827352072  0.8832892161581761  0.5359048886253681  
  0.7182052680482244  0.1057164703098336  0.4556581133934442  
  0.6895081163657415  0.8949659672441510  0.4671166885205930  
  0.3146356992637920  0.1003345065515490  0.5397588575770182  
  0.7490698867502710  0.4000141547757576  0.5031560705679666  
  0.2393903009806153  0.5393461280018902  0.4854669566763923  
  0.2617988240663584  0.3390143379973967  0.6641121033235949  
  0.8176019042813473  0.5442096219039522  0.5410035797314001  
  0.1742886738674591  0.9415724376867090  0.6563984102676084  
  0.8082736621806140  0.1640639105853411  0.2233879140953871  
  0.8460975536002014  0.8196920892347196  0.4159324002394980  
  0.1109669074171519  0.2997484396121081  0.2915878448618313  
  0.7032349590892570  0.3163697005997070  0.8008909201331684  
  0.3073173079433520  0.7032895998688339  0.2850022351729048  
  0.3415398733037240  0.3738596304644335  0.3481405065419704  
  0.6798709847394199  0.6228215715441383  0.6224462482794506  
  0.0766552468434948  0.2941330446235852  0.3223321095782340  
  0.8095097568589310  0.8409851623915606  0.3484015376886088  
  0.7696312337958212  0.1478621769084899  0.2004631356264735  
  0.2040797759609382  0.9799075012671066  0.7183948001175443  
  0.7153183112903190  0.6377277802762530  0.6849653868302574  
  0.3079169149533797  0.3930689442771002  0.2664165329228104  
  0.2678311219211536  0.7157828343593623  0.2458755975627469  
  0.7356228877894313  0.2947243242528003  0.8866904458487608  
  0.1837575991378745  0.0970527524381582  0.0449542029927360  
  0.8066639100613605  0.9053570697573800  0.9823656509876280  
  0.8210527851587235  0.9318833770219468  0.7217844006516035  
  0.1838399921907254  0.0318244362512541  0.3207226789804312  
  0.7051545414415752  0.6092896810372581  0.9807237589887844  
  0.3345020540380282  0.5716933941128542  0.8091802811309360  
  0.2887379669309768  0.6597538916940933  0.9755917460474620  
  0.6727664428053957  0.5507543318079883  0.2195522913608635  
  0.3776951989258964  0.9838459153690020  0.4697209418020202  
  0.6334167891254801  0.0589240635150807  0.4926374072169712  
  0.8378735202730320  0.3413673398796736  0.5030941518064567  
  0.1712466279738423  0.4113369983930678  0.5551391262053302  
  0.3775929932346059  0.0697021280733896  0.1663701707127543  
  0.6159394379733848  0.9935668186742260  0.7864401306441866  
  0.8878817280748412  0.4811353292009700  0.2539873782675072  
  0.1202796768489577  0.4892472511930362  0.7477680614947931  
  0.4604546417547419  0.9338980821479153  0.9137604780325076  
  0.9777733977767302  0.3337433482743058  0.9245150236866688  
  0.4980185771800872  0.5090100230530746  0.5345863252473528  
  0.0073669712104662  0.9182805753107736  0.5271054168340542  
  0.2901875308674938  0.1181748507073541  0.9243137227303206  
  0.6920401726079342  0.9091927572658244  0.0526730973027892  
  0.8272733885049685  0.5853085040441915  0.9677296088627332  
  0.1617509523898020  0.6088017523626436  0.9759987110842462  
  0.0855227632331721  0.6822897228160391  0.0536593866377541  
