N    C    H    Ag   Be   O    Li
   1.00000000000000     
  18.6565965599237984  -0.0684537699530059   0.9498732735987200
  -0.0024791770465623   7.9671025397556399   0.9709370137724880
  -1.9465055903040700   0.8593514660642450   7.2551813006155204
N    C    H    Ag   Be   O    Li
12  20  40  2  2  4  1  
Direct
  0.5532004145291002  0.2480959310637992  0.8112142715103233  
  0.5523545928175659  0.8220268119720586  0.2505307989061011  
  0.4995500898606421  0.2598608470228412  0.2125491095483382  
  0.3615107506079784  0.6294274280563256  0.5096493479490225  
  0.0428375713897754  0.8466685277481942  0.7532760788240137  
  0.0103390060189030  0.3396700289918088  0.0800536184152761  
  0.9799207620328190  0.8135873987223046  0.1568263458576739  
  0.9053837951832744  0.2510790468487167  0.5737603237238154  
  0.3105121727443843  0.0531544809652695  0.2771755082539736  
  0.7398747348632382  0.9522303568850700  0.7195997387704606  
  0.7603498358679244  0.4845739526594391  0.1347400563230712  
  0.2400180318275522  0.5487616609399505  0.9682750793070104  
  0.5411049141327102  0.3595756301615178  0.6766202922339811  
  0.5403898673882276  0.6924640281327492  0.3455622599350685  
  0.4963727010313551  0.3608295901918437  0.3009919458959906  
  0.4155942983694207  0.5738687077726963  0.4838232935905867  
  0.0352893590400308  0.9400009434503542  0.6061448891787354  
  0.0154846610999514  0.2364317259070775  0.2211406700916668  
  0.9714254091430156  0.9101922584347574  0.2468510786914068  
  0.9245079004738176  0.1727878682036397  0.4771206800096069  
  0.3475484655450062  0.0238119429916737  0.1405488669186797  
  0.6839600648206733  0.9327326924992708  0.8203601330553396  
  0.8220480141709470  0.4778840315458381  0.0610768684786748  
  0.1651818411154284  0.5617810899206126  0.9620924229045100  
  0.3556758077858787  0.0647297253240808  0.4579091722888034  
  0.7197060340121009  0.9923234446982194  0.5159265667377850  
  0.7647423872426473  0.5604125843629234  0.2958026737902752  
  0.2648614726772930  0.4766742226940825  0.8275074917431765  
  0.2377545579133319  0.0573014200043753  0.2447696533584631  
  0.8106842546994490  0.9369940560047648  0.8078443569382296  
  0.6965921729180345  0.4215285240995892  0.0635141482687217  
  0.2890024566020148  0.6050774370547189  0.0951961053013417  
  0.3674447653144796  0.9351720463390792  0.5477400685252984  
  0.7436747407788389  0.1121679648726688  0.4593387144795174  
  0.7401469307746719  0.8885083670741823  0.4642081309849460  
  0.3259598333652022  0.1442791613639646  0.5217612694190639  
  0.7573375382456921  0.4615871413730650  0.4165374689429086  
  0.3067522705660758  0.5556287993973459  0.7722799269844797  
  0.2870204666599384  0.3443785414305762  0.8886672018541228  
  0.7222881768470489  0.6640645888478004  0.2609260273437913  
  0.0567407646886014  0.4812930490620609  0.5211670775108544  
  0.8217888897373836  0.0713985048354804  0.2299316814939621  
  0.8830702304313423  0.6461541019732951  0.6520064580135527  
  0.1383050766277895  0.1889036239762802  0.6742637206386686  
  0.6862014539062078  0.3037907190100329  0.6309289451562273  
  0.2022625883887567  0.7328501852020720  0.4521452995337167  
  0.2441078662458221  0.3821787653014848  0.4338403742683972  
  0.6721586148212300  0.6470669872238419  0.6050453532956491  
  0.1774424710044525  0.1647151821408304  0.7232395200847208  
  0.9211215752300236  0.6775851334620631  0.6540288745954348  
  0.7871694044154909  0.0519889897190654  0.1686429065722067  
  0.2351379468507313  0.8905295117502997  0.7241480939086959  
  0.7068274979922615  0.6128582715345857  0.6744867388639144  
  0.2045421839565016  0.3837758755285582  0.3860290899027746  
  0.1623810761872180  0.7297968289735907  0.4095640084879152  
  0.7251414391596794  0.3075386687665788  0.6808009466395513  
  0.2101947338924142  0.0756202911042830  0.3522946013735678  
  0.8522421858237574  0.9562148332297796  0.7253318062985145  
  0.8232972118387860  0.9096235805634856  0.9586608347661160  
  0.2082871371884791  0.0395855360084353  0.1108215616245946  
  0.6493551353384210  0.4353064520423676  0.1230248990324366  
  0.3466465401371800  0.5939778888321323  0.0915135829015726  
  0.2705801209358594  0.6545250566427890  0.2012828032152724  
  0.6942518191000685  0.3646051188875791  0.9455624431183348  
  0.4067647497740871  0.1239321038231714  0.4352332245947778  
  0.6600192450712996  0.0059401668816993  0.4710237571602265  
  0.8188441212457680  0.6126640507554340  0.3272123645229972  
  0.2180052340925391  0.4770985309634716  0.7129843622848955  
  0.4075729671244465  0.0199127136601995  0.1868471841091248  
  0.6287327943287609  0.9489790526106324  0.7292821964683708  
  0.8703193426249940  0.5311215609930002  0.1361865748898935  
  0.1314146994588003  0.5171789299680075  0.8452428793139959  
  0.5484374509246082  0.0630474633302444  0.0593695303832310  
  0.9329291097146232  0.3334589369321559  0.8254116047920831  
  0.5013293058914682  0.5007224354868646  0.4548580187878692  
  0.9879374131589110  0.0636859783189702  0.3862367746462421  
  0.3147886149862113  0.0042174942073669  0.9892370621585760  
  0.6965815728105236  0.9012582849882128  0.9912586476131650  
  0.8222969820851824  0.4169693736423374  0.9237758019608904  
  0.1399459827662943  0.6208663550431928  0.0758674453222466  
  0.0414433819578082  0.7182082821325032  0.0128182919493859  
