N    C    H    Ni   O    Li             
   1.00000000000000     
    17.6455811300683685   -0.0577895332660656    1.3908542312029599
    -0.8408368949425957    7.4690201815026818    0.3488651772637920
    -1.1206358533693666    0.9302136136755443    7.3709736864434783
   N    C    H    Ni   O    Li
    12    20    40     4     4     1
Direct
  0.5029676356695588  0.1820805680284924  0.8198826784419622
  0.4959146770732347  0.7760144082864674  0.1824372792650790
  0.5266203984640232  0.1975139401531450  0.2242291512347255
  0.4641043086215921  0.7430457254316903  0.6873268105710392
  0.9943665214659043  0.6889920565708925  0.7328616029812504
  0.9684864169851696  0.2978788507818682  0.0976611633204424
  0.0358036505040350  0.7720567216348588  0.2002647813910031
  0.9729196199385877  0.2745032356984743  0.7044390674892586
  0.3092583027293789  0.0679067338490500  0.2574534215519019
  0.7331683465861820  0.0207997792233679  0.9488183491921423
  0.7454532384654813  0.5283448481359313  0.0162808704430463
  0.2396236434600779  0.4121247585616514  0.8669826474158449
  0.4997777912987176  0.2821604107968238  0.6814454280445938
  0.4998919565902206  0.6441565264050556  0.2909464517235635
  0.5190730836430713  0.2941982970550286  0.3265549356852896
  0.4787373476694804  0.6279645793612529  0.6126600444104242
  0.9958564295391902  0.8249008101292676  0.6257632779500899
  0.9814954665815316  0.2007062185698655  0.2355244017383927
  0.0178520512674110  0.8699840939043367  0.2908862012516162
  0.9790689503785927  0.1795326463080253  0.5993460543611828
  0.3680263897057615  0.9957279180349475  0.2058261646731756
  0.6556026014150124  0.0057812176025950  0.9291930696844867
  0.8236613111290091  0.5301525101234775  0.0327651949465779
  0.1741004051719513  0.4893279064382281  0.8432373828997253
  0.2830956157059765  0.9920919603649158  0.4384302294714577
  0.7763971567536967  0.0387714948745159  0.7887416443115993
  0.7038202870798899  0.5030366789588249  0.1830305607065733
  0.2753311622996413  0.3845731822080808  0.7046872678907571
  0.2583611357817235  0.1778104107731527  0.1309651461882653
  0.7696227606234513  0.0250640909945178  0.1148152891095368
  0.7042582889358849  0.5446724024064351  0.8540572671355888
  0.2829550603364829  0.3778367573562769  0.0470599030907487
  0.2340366216443449  0.8840255986383836  0.4397547093007353
  0.8123519525680040  0.1707940141499331  0.7682217796149657
  0.8112516744113757  0.9254305261525723  0.8059600137924925
  0.2705675753760540  0.1030598415137353  0.5029163043907110
  0.6675517232183846  0.3717630566636135  0.2007628012568484
  0.3184795580759363  0.5004083954399540  0.6578131801527826
  0.3019942763249062  0.2576651258364318  0.7355866537879504
  0.6683906708617957  0.6147755186588091  0.1712413170628029
  0.2172285860559609  0.9151707814353057  0.7708570177170075
  0.8413253589515406  0.2022373371509890  0.4569317866192803
  0.8326296240493999  0.6904859097008401  0.5367251724849662
  0.1268223209091097  0.1954186898974636  0.4891460546842055
  0.6432732841346190  0.3471764850069303  0.5304309859218690
  0.2639225026123780  0.6010877630744569  0.3615690774095645
  0.3772701375660256  0.3616113369051643  0.4065135605684618
  0.6390706834446576  0.8710943296105915  0.4234207832202505
  0.1495138052043050  0.1586153931962689  0.5737557611798115
  0.8103423348047240  0.7363876286371278  0.4557786576430228
  0.8015846932801156  0.1992388799204435  0.4135648679228111
  0.2570822042650558  0.9046124029748764  0.8110440518329446
  0.6693775041439340  0.8265380962790326  0.4851608851684630
  0.3378245645488206  0.3619122302613640  0.3603538580300895
  0.2232054734265486  0.6063259432932189  0.3258711126609475
  0.6843477162068445  0.3411306605122913  0.5637083225778461
  0.2696834934426416  0.1546889712734912  0.9890700380757150
  0.7179567390319922  0.0464177818225488  0.2044335210764288
  0.8334537962635185 -0.0001166103391639  0.0969266945825892
  0.2045022293509730  0.1472901949934330  0.2187610208523594
  0.7343352919446604  0.5756337530856137  0.7290318159434882
  0.3428308481219649  0.3844314365537847  0.0125777956529297
  0.2767737978281862  0.4800389491210992  0.1272823483193395
  0.6418261185062147  0.5328504353461411  0.8514837362876455
  0.3316430218082561  0.9332454752624397  0.5164941410894427
  0.7332376833110900  0.0247225146045103  0.6787757668919341
  0.7461559040442691  0.5147624904573844  0.2957627799391989
  0.2305028616306811  0.3659665320079629  0.5977390931129896
  0.3989192455850077  0.9112865778216616  0.3173541193455274
  0.6295820348424462  0.9878911272190420  0.7949913610472764
  0.8511623958358664  0.5167687742011537  0.1709777876885274
  0.1462174660324198  0.4954093637093043  0.7044862764124292
  0.5039043371399071  0.0182132904056169  0.0445762387957882
  0.9531997313643865  0.4360956654092024  0.8593177974331536
  0.4999816574930134  0.4549648058867494  0.4775400392529541
  0.9943433259938483  0.0241535558815641  0.4400121405629978
  0.3882643666778148  0.0235785428171003  0.0452339718759136
  0.6177977358734333  0.0070496207492782  0.0644497045712919
  0.8618391372121256  0.5456979111324113  0.8945563052842056
  0.1461859242107668  0.5494324594149045  0.9648843963120378
  0.0614893771771396  0.6460914731296414  0.0113764875869601
 
             NaN             NaN             NaN
             NaN             NaN             NaN
             NaN             NaN             NaN
             NaN             NaN             NaN
             NaN             NaN             NaN
             NaN             NaN             NaN
             NaN             NaN             NaN
             NaN             NaN             NaN
             NaN             NaN             NaN
             NaN             NaN             NaN
             NaN             NaN             NaN
             NaN             NaN             NaN
             NaN             NaN             NaN
             NaN             NaN             NaN
             NaN             NaN             NaN
             NaN             NaN             NaN
             NaN             NaN             NaN
             NaN             NaN             NaN
             NaN             NaN             NaN
             NaN             NaN             NaN
             NaN             NaN             NaN
             NaN             NaN             NaN
             NaN             NaN             NaN
             NaN             NaN             NaN
             NaN             NaN             NaN
             NaN             NaN             NaN
             NaN             NaN             NaN
             NaN             NaN             NaN
             NaN             NaN             NaN
             NaN             NaN             NaN
             NaN             NaN             NaN
             NaN             NaN             NaN
             NaN             NaN             NaN
             NaN             NaN             NaN
             NaN             NaN             NaN
             NaN             NaN             NaN
             NaN             NaN             NaN
             NaN             NaN             NaN
             NaN             NaN             NaN
             NaN             NaN             NaN
             NaN             NaN             NaN
             NaN             NaN             NaN
             NaN             NaN             NaN
             NaN             NaN             NaN
             NaN             NaN             NaN
             NaN             NaN             NaN
             NaN             NaN             NaN
             NaN             NaN             NaN
             NaN             NaN             NaN
             NaN             NaN             NaN
             NaN             NaN             NaN
             NaN             NaN             NaN
             NaN             NaN             NaN
             NaN             NaN             NaN
             NaN             NaN             NaN
             NaN             NaN             NaN
             NaN             NaN             NaN
             NaN             NaN             NaN
             NaN             NaN             NaN
             NaN             NaN             NaN
             NaN             NaN             NaN
             NaN             NaN             NaN
             NaN             NaN             NaN
             NaN             NaN             NaN
             NaN             NaN             NaN
             NaN             NaN             NaN
             NaN             NaN             NaN
             NaN             NaN             NaN
             NaN             NaN             NaN
             NaN             NaN             NaN
             NaN             NaN             NaN
             NaN             NaN             NaN
             NaN             NaN             NaN
             NaN             NaN             NaN
             NaN             NaN             NaN
             NaN             NaN             NaN
             NaN             NaN             NaN
             NaN             NaN             NaN
             NaN             NaN             NaN
             NaN             NaN             NaN
             NaN             NaN             NaN
