H    Li   C    N    O    Pb   Pt        
   1.00000000000000     
     7.4598526328103505   -0.8745691887360224    0.8236353227185081
    -0.1781861346259231    7.4668968298942930    0.2355071118404877
     0.4161772542591574    0.1982246979837577    7.3783963366322176
   H    Li   C    N    O    Pb   Pt
    14     1    10     6     2     1     1
Selective dynamics
Direct
  0.5662470535871763  0.9332198984710296  0.6697156425089156   T   T   T
  0.2299203654778708  0.0150832958639353  0.3080436419741114   T   T   T
  0.3913006662880672  0.2149607956251790  0.2719165502887274   T   T   T
  0.2344874623587503  0.1685276542646718  0.4842947304371679   T   T   T
  0.6271745416801477  0.0043021236304677  0.2119019497533897   T   T   T
  0.4746834062730564  0.8008398790864782  0.2830502896575763   T   T   T
  0.6593886735395187  0.8628678856351965  0.4029799395356513   T   T   T
  0.3747486137994317  0.5469961594265723  0.5069996850175064   T   T   T
  0.5210232147872127  0.3098874469719450  0.9271996371687908   T   T   T
  0.5980396243265345  0.5403626944979375  0.9737058834405032   T   T   T
  0.7124100349430659  0.4411858414826369  0.7830139156691908   T   T   T
  0.3568774435472618  0.7085678505758030  0.9189312873021613   T   T   T
  0.2199157362484694  0.4890212016847489  0.9440379236377988   T   T   T
  0.2283517230479903  0.6391680415749376  0.7458618561670111   T   T   T
  0.7453569885618994  0.4311929460687071  0.2550499462794690   T   T   T
  0.8651849846794153  0.8179614212233705  0.0385395573579621   T   T   T
  0.9858369776603191  0.2680677736195187  0.7153779335314024   T   T   T
  0.9508937959305213  0.8957762492990772  0.6826233328709768   T   T   T
  0.9450976873739819  0.1981381308027429  0.0959030727259596   T   T   T
  0.4608929776802693  0.0142161957468465  0.6371211899479727   T   T   T
  0.3182868017815834  0.1082255909880582  0.3768442314064469   T   T   T
  0.5572316998268260  0.9153373811093510  0.3335138809130179   T   T   T
  0.4816475942181563  0.4944961402550436  0.5731401366148376   T   T   T
  0.5806972089916871  0.4471382854930568  0.8668430536633117   T   T   T
  0.3081364355900073  0.5924814506496333  0.8456901026093313   T   T   T
  0.8245469071884233  0.6724072449886114  0.1145654686115138   T   T   T
  0.0120774106082187  0.3930395760766185  0.6055696410221845   T   T   T
 -0.0106421368376107  0.7912841562066447  0.5750489050766407   T   T   T
  0.9720960290860421  0.2897100872787553  0.2170703284358453   T   T   T
  0.4447589084309369  0.0127741307633900  0.4569369040117146   T   T   T
  0.4614717297357634  0.5157985641326857  0.7527227213688263   T   T   T
  0.3727837577788442  0.0932951966479063  0.7549071680646920   T   T   T
  0.6064275242146886  0.4274638097273110  0.4811989762187354   T   T   T
  0.0901797606023731  0.5987400454032025  0.3495005519138004   T   T   T
  0.9297983969931302  0.0505088547279387  0.8867449647968595   T   T   T
 
  0.00000000E+00  0.00000000E+00  0.00000000E+00
  0.00000000E+00  0.00000000E+00  0.00000000E+00
  0.00000000E+00  0.00000000E+00  0.00000000E+00
  0.00000000E+00  0.00000000E+00  0.00000000E+00
  0.00000000E+00  0.00000000E+00  0.00000000E+00
  0.00000000E+00  0.00000000E+00  0.00000000E+00
  0.00000000E+00  0.00000000E+00  0.00000000E+00
  0.00000000E+00  0.00000000E+00  0.00000000E+00
  0.00000000E+00  0.00000000E+00  0.00000000E+00
  0.00000000E+00  0.00000000E+00  0.00000000E+00
  0.00000000E+00  0.00000000E+00  0.00000000E+00
  0.00000000E+00  0.00000000E+00  0.00000000E+00
  0.00000000E+00  0.00000000E+00  0.00000000E+00
  0.00000000E+00  0.00000000E+00  0.00000000E+00
  0.00000000E+00  0.00000000E+00  0.00000000E+00
  0.00000000E+00  0.00000000E+00  0.00000000E+00
  0.00000000E+00  0.00000000E+00  0.00000000E+00
  0.00000000E+00  0.00000000E+00  0.00000000E+00
  0.00000000E+00  0.00000000E+00  0.00000000E+00
  0.00000000E+00  0.00000000E+00  0.00000000E+00
  0.00000000E+00  0.00000000E+00  0.00000000E+00
  0.00000000E+00  0.00000000E+00  0.00000000E+00
  0.00000000E+00  0.00000000E+00  0.00000000E+00
  0.00000000E+00  0.00000000E+00  0.00000000E+00
  0.00000000E+00  0.00000000E+00  0.00000000E+00
  0.00000000E+00  0.00000000E+00  0.00000000E+00
  0.00000000E+00  0.00000000E+00  0.00000000E+00
  0.00000000E+00  0.00000000E+00  0.00000000E+00
  0.00000000E+00  0.00000000E+00  0.00000000E+00
  0.00000000E+00  0.00000000E+00  0.00000000E+00
  0.00000000E+00  0.00000000E+00  0.00000000E+00
  0.00000000E+00  0.00000000E+00  0.00000000E+00
  0.00000000E+00  0.00000000E+00  0.00000000E+00
  0.00000000E+00  0.00000000E+00  0.00000000E+00
  0.00000000E+00  0.00000000E+00  0.00000000E+00
