N    C    H    Mn   Ni   O    Li        
   1.00000000000000     
    17.6681700908547192   -0.1801163474634480    0.3412020152312790
    -0.2641785322872679    7.5718006007804712    0.0172826683065692
    -1.4922201478168124   -0.0047092313144768    7.0525598654377717
   N    C    H    Mn   Ni   O    Li
    12    20    40     2     2     4     1
Direct
  0.4851346645113865  0.1926048891626803  0.7825266473019552
  0.5187400158870618  0.7787752542214184  0.2231791425146179
  0.5209417620725256  0.2025765619380762  0.2230504187862580
  0.4844572719118592  0.7709623976490612  0.7841004634445123
  0.9838396029268325  0.7173432547685353  0.7752863520017380
  0.0095171081503513  0.3059650167694829  0.2117232652306664
  0.0332930956682125  0.7408939823645377  0.2130429643391638
  0.9753317410773902  0.2908439256676433  0.7674853401542988
  0.2819298002059817  0.9982879946247365  0.2025606854022826
  0.7201048687497880  0.0038337337342809  0.8013270631759142
  0.7742667494358300  0.5128102088600527  0.1802840528706486
  0.2220923626090076  0.4914359297192707  0.8240270346172878
  0.4897212271295328  0.3081931552528204  0.6750172488290441
  0.5127324446256423  0.6635538218528829  0.3303267591011667
  0.5139284172578789  0.3142800003755586  0.3299212682026786
  0.4895053943448288  0.6584541758116993  0.6765012309523288
  0.9889982089683039  0.8309426882477545  0.6657307055007561
  0.0059500802212950  0.1892148536422208  0.3184659687041231
  0.0184698879156505  0.8442544764524564  0.3205185480894297
  0.9817290470532904  0.1785534963819555  0.6609238780112471
  0.3548545693426502  0.9917927305587025  0.1795905688807675
  0.6453829056589484  1.0000025475401666  0.8314252412077920
  0.8502787684506384  0.5146859366530918  0.1661251790471891
  0.1458957716022241  0.4920790570997295  0.8293611176398562
  0.2668745434024767  0.0087061784558825  0.3929684317471910
  0.7337705537429462  0.0158874687878132  0.6079103596283993
  0.7537450979434736  0.5135638604840671  0.3679349427264794
  0.2453765428911938  0.4615005593602902  0.6423443175884441
  0.2148047181355669  0.9805947590082051  0.0529699412445096
  0.7819361025072943  0.9962729231973578  0.9456780593786495
  0.7161469405169928  0.5079148274096518  0.0268841553973155
  0.2783712264067502  0.5256679398558500  0.9770279152060537
  0.2351294727678762  0.8881599047785714  0.4267406475817420
  0.7687959398907209  0.1362150039880758  0.5918213410245564
  0.7650906710503879  0.9014997832603578  0.5764291661793884
  0.2306342737472844  0.1209873972373637  0.4038821024495875
  0.7181821630280186  0.3945399266963543  0.3853182140885273
  0.2796646416687600  0.5771583474621178  0.6084033461114836
  0.2802024654964986  0.3445515311484609  0.6519233787851756
  0.7202473269227232  0.6294308916920452  0.3816501992830023
  0.1492672736906521  0.7893252593444846  0.5984427489039733
  0.8480235250894839  0.1783049540599185  0.3693501364319204
  0.8665644962772777  0.8515937009904027  0.3867969219303501
  0.1365468423745128  0.1391066402138968  0.6165282201576128
  0.6357250543325943  0.3416334965733787  0.6207818811242418
  0.3609881743703057  0.6636506245641107  0.4029677345372938
  0.3575274432502952  0.3578942193389916  0.3777989017428485
  0.6395827514313713  0.6649018414543412  0.6122130213979344
  0.1645393078384484  0.1398856356091362  0.7091310756636143
  0.8267348060717392  0.8364664922338843  0.3293656041431434
  0.8127743269638605  0.1818878851933743  0.2934845401525866
  0.1736981624475104  0.8186941000709135  0.6905456423315139
  0.6788957199198500  0.6820481091070080  0.6713106951936875
  0.3244542498748670  0.3290126613839739  0.3011341427666113
  0.3218390233661678  0.6923789097271026  0.3573041666848532
  0.6765688926873714  0.3284673609089079  0.6689671804421884
  0.1783606970416791  0.0940523375028473  0.0645394921433679
  0.7702819884539985  0.9825448533666665  0.0872034142231909
  0.8394617084622547  0.0021764759853460  0.9130723752830261
  0.2354089153598899  0.9920681208805934  0.9185732658405792
  0.6570245172243648  0.5068674207976519  0.0487790912725261
  0.3379970694580950  0.5290273035571028  0.9589921100438888
  0.2616234169294179  0.5460714941524356  0.1116181350719171
  0.7318322059846875  0.5052054711372832  0.8891088852788993
  0.3208583568949304  0.0250330250153037  0.4962503957802188
  0.6786876852469268  0.0193306783254666  0.5084653263165330
  0.8061707141691863  0.5172788058207159  0.4769406177841591
  0.1939805628793928  0.4422772503583306  0.5317471294438710
  0.3976782422009103  0.9951079274072520  0.3119461710781686
  0.6019281542818055  1.0037371584837083  0.7004758374739205
  0.8904908562771452  0.5154915701946553  0.3023495178406824
  0.1069679150052782  0.4591069929086494  0.6960810337414698
  0.4949899842779481  0.9856601559770662  1.0031388284263378
  0.9914587274911048  0.4957986043538912  0.9798864347429692
  0.5009958382734986  0.4861201354618487  0.5027532967302389
  0.9981144433479905  0.0089773234090271  0.4910165668945554
  0.3754943257055068  0.9798746778371968  0.0203662309396460
  0.6284996888628248  0.9927340990582548  0.9916448068499107
  0.8724676731201668  0.5141277023303862  0.0099645000687499
  0.1204968433955825  0.5310921435834569  0.9777054657732752
  0.1294282653086925  0.7730329975789001  1.0770644819966617
 
             NaN             NaN             NaN
             NaN             NaN             NaN
             NaN             NaN             NaN
             NaN             NaN             NaN
             NaN             NaN             NaN
             NaN             NaN             NaN
             NaN             NaN             NaN
             NaN             NaN             NaN
             NaN             NaN             NaN
             NaN             NaN             NaN
             NaN             NaN             NaN
             NaN             NaN             NaN
             NaN             NaN             NaN
             NaN             NaN             NaN
             NaN             NaN             NaN
             NaN             NaN             NaN
             NaN             NaN             NaN
             NaN             NaN             NaN
             NaN             NaN             NaN
             NaN             NaN             NaN
             NaN             NaN             NaN
             NaN             NaN             NaN
             NaN             NaN             NaN
             NaN             NaN             NaN
             NaN             NaN             NaN
             NaN             NaN             NaN
             NaN             NaN             NaN
             NaN             NaN             NaN
             NaN             NaN             NaN
             NaN             NaN             NaN
             NaN             NaN             NaN
             NaN             NaN             NaN
             NaN             NaN             NaN
             NaN             NaN             NaN
             NaN             NaN             NaN
             NaN             NaN             NaN
             NaN             NaN             NaN
             NaN             NaN             NaN
             NaN             NaN             NaN
             NaN             NaN             NaN
             NaN             NaN             NaN
             NaN             NaN             NaN
             NaN             NaN             NaN
             NaN             NaN             NaN
             NaN             NaN             NaN
             NaN             NaN             NaN
             NaN             NaN             NaN
             NaN             NaN             NaN
             NaN             NaN             NaN
             NaN             NaN             NaN
             NaN             NaN             NaN
             NaN             NaN             NaN
             NaN             NaN             NaN
             NaN             NaN             NaN
             NaN             NaN             NaN
             NaN             NaN             NaN
             NaN             NaN             NaN
             NaN             NaN             NaN
             NaN             NaN             NaN
             NaN             NaN             NaN
             NaN             NaN             NaN
             NaN             NaN             NaN
             NaN             NaN             NaN
             NaN             NaN             NaN
             NaN             NaN             NaN
             NaN             NaN             NaN
             NaN             NaN             NaN
             NaN             NaN             NaN
             NaN             NaN             NaN
             NaN             NaN             NaN
             NaN             NaN             NaN
             NaN             NaN             NaN
             NaN             NaN             NaN
             NaN             NaN             NaN
             NaN             NaN             NaN
             NaN             NaN             NaN
             NaN             NaN             NaN
             NaN             NaN             NaN
             NaN             NaN             NaN
             NaN             NaN             NaN
             NaN             NaN             NaN
