N    C    H    Ni   O    Li
   1.00000000000000     
  18.1179092553911012   0.0180003804598670   1.8215912515267800
   0.0068606895491908   7.5139129844543504   0.7313776226502410
  -1.5214323138309200   0.6045144571652920   7.2957917685981304
N    C    H    Ni   O    Li
12  20  40  4  4  1  
Direct
  0.4976248980098057  0.1674652693627169  0.8199977241265198  
  0.5160745952931890  0.7721918797000631  0.1990888645122515  
  0.5240654800071775  0.1776919111736552  0.2287202124753638  
  0.4579048280487420  0.7132139877764995  0.7052274546750422  
  0.9838399971723352  0.6362640470934772  0.7287168956837977  
  0.9690715374406954  0.2572163505759757  0.0999998188520856  
  0.0174707718544979  0.7360264808817387  0.1762501226222156  
  0.9792989957227732  0.2374045039680271  0.7076386369829633  
  0.3078855545691361  0.9924107588756120  0.2887501001214262  
  0.7415400475762216  0.0061484875137351  0.9495860835288704  
  0.7418591872446954  0.5299939869695666  0.0075733145653664  
  0.2627913653254694  0.5126768673984887  0.8604515888462134  
  0.4974382428884289  0.2683286258359877  0.6816335442415079  
  0.5104213583964382  0.6373507813240359  0.3008759429755938  
  0.5179391720402670  0.2800225785538807  0.3280529344686314  
  0.4772316975037753  0.6072865493548745  0.6204546224840369  
  0.9888078937805598  0.7719039601286480  0.6251515977371265  
  0.9785990362703524  0.1562056641466528  0.2400973234450781  
  0.0041695405943571  0.8252145711476379  0.2830100004074754  
  0.9827125721697630  0.1346290477771014  0.6069023839910442  
  0.3788352117945329  0.9856213317265592  0.2446858344861365  
  0.6659816295678705  0.0014173798081829  0.9203730751380516  
  0.8172854720174647  0.5114866926046947  0.0242838437609451  
  0.1894326022919931  0.4876803359604492  0.8798490455743426  
  0.2962724304289369  0.9616807019166200  0.4830035209775040  
  0.7857997930358415  0.0080396103440353  0.7962916921124086  
  0.7042585696299505  0.5275332813056701  0.1723743582445968  
  0.3012576633139919  0.3934296740094182  0.7628702346995546  
  0.2487714860594274  0.0336564890633620  0.1598086601011331  
  0.7769385396003951  0.0096630889945114  0.1186652570027641  
  0.6999661131193297  0.5467220303118967  0.8435199756178052  
  0.3015280258535107  0.6416922711148847  0.9321901625813632  
  0.2528988463119619  0.8636141126216359  0.5071349132449352  
  0.8185617127215867  0.1297273478961511  0.7796075513296539  
  0.8232764813861098  0.8892966990716438  0.8222549234809083  
  0.2789266206323612  0.0886322913307709  0.5207201559798437  
  0.6695109144486309  0.4094161917806693  0.1922000063961636  
  0.3320300435625485  0.4743988180974072  0.6612595074286042  
  0.3400764754833472  0.3012807490054276  0.8587580349801782  
  0.6693266571176798  0.6495947121643283  0.1581290069479015  
  0.1385172175346957  0.0175981930537262  0.7418399965569162  
  0.8451046505909364  0.2408281713538367  0.4502643317237073  
  0.8272934885478624  0.6831108928609135  0.5366239995392904  
  0.1546567559858696  0.2986109471170283  0.3922025982359239  
  0.6499242328320383  0.3028223886411853  0.5269812784940646  
  0.1886926869393275  0.6191495308853159  0.4170241010531360  
  0.3559519578146325  0.3893167322320070  0.3412273846381620  
  0.6392536258824481  0.8919622574031323  0.4335994561398067  
  0.1225954940304609  0.2463031907702328  0.4266020323167394  
  0.8084695239441132  0.7349891838411744  0.4484097771494734  
  0.8054589862344815  0.2403861108283457  0.4110220461782729  
  0.1638994820384659  0.9432833858010340  0.7952869601697219  
  0.6629761466799658  0.8384151355339293  0.5135793056485910  
  0.3162262775724469  0.4038311491177685  0.3009366547375454  
  0.1916697853291694  0.6337145408357967  0.3161397315634230  
  0.6899966806974157  0.3039023004185246  0.5629978362535697  
  0.1939775505702584  0.0352762813956687  0.2040397219253009  
  0.8366848595553684  0.0162922300261486  0.1332062977939887  
  0.7432451182950160  0.0091596156216822  0.2299479984070560  
  0.2591183316110804  0.0584919856043269  0.0176599983412148  
  0.6403422888031627  0.5562615520890957  0.8408380111482817  
  0.3590988778175889  0.6577214294677068  0.9079718797743884  
  0.2722123853702057  0.7242316438076328  0.0082947428305547  
  0.7281669836619985  0.5467187923268457  0.7230009449615636  
  0.3477796374662670  0.9098725022377232  0.5660425411201795  
  0.7489187824304884  0.0064070578239689  0.6713932896718255  
  0.7456769928784026  0.5214812909334210  0.2904446647235588  
  0.2601736288862289  0.3160248198064864  0.6939873056479292  
  0.4206135072856834  0.9493851725877056  0.3628788937860450  
  0.6432548497908691  0.0033194726451602  0.7779610448760639  
  0.8447097681803226  0.4967691395140912  0.1642069957128326  
  0.1651387246278704  0.3797175337188252  0.8129446234964218  
  0.5105388363586060  0.0101689425572100  0.0529857570047300  
  0.9520416913681330  0.4031947896823150  0.8592706102324296  
  0.5017193294683675  0.4426777182788503  0.4795378508096680  
  0.9891013014988992  0.9749260902259380  0.4450985227024898  
  0.3942122153361262  0.0178929757627873  0.0822840074156027  
  0.6270595806098467  0.9960783928407768  0.0497375574626209  
  0.8520045481020072  0.5109028170890030  0.8871048668372057  
  0.1531277445912773  0.5805577933468337  0.9651455957522488  
  0.0537334648868048  0.6274856067668533  0.9846398579289564  
