N    C    H    Cu   O    Li             
   1.00000000000000     
    17.7413122220473269   -0.1306686403355770    0.0744231882918513
     0.0676866526846240    7.9784222492854262    0.6501978569434690
    -1.6632924168623258    1.0693381597696607    7.1970202560937384
   N    C    H    Cu   O    Li
    12    20    40     4     4     1
Direct
  0.5101814291740574  0.1782226873216579  0.8259752384065607
  0.5153908699279042  0.8139235769840006  0.1899135382803201
  0.5472272101143485  0.2007572278727201  0.2455819563005540
  0.4705789211842934  0.7118522897875642  0.7080276910634755
  0.9863165283221456  0.6548377735135549  0.8076043281587594
  0.9858480046269286  0.2960393387909993  0.1516251014358550
  0.0381562878132852  0.7459156545881008  0.2715745469161067
  0.9480104579515755  0.2690133512485950  0.7207888359542128
  0.2731366538778969  0.9925145064713411  0.2422643005612575
  0.7421532170496009  0.9635447215019028  0.8190195593019238
  0.7530139169719798  0.5247993536733169  0.1382311840634234
  0.2397998172686167  0.5162160287013871  0.8210473168712363
  0.5023703674282572  0.2755429684041292  0.6795855231753203
  0.5077896242567683  0.6735921875046237  0.2705294757711402
  0.5417762549998824  0.3051817096414482  0.3316256785805771
  0.4902369412474287  0.6189382617916546  0.6231221145998964
  0.9962886165017197  0.7918210895090383  0.7206227351372843
 -0.0023744526666509  0.1927608534210770  0.2947943734279095
  0.0174718632382020  0.8363534829981788  0.3575567581808842
  0.9544573831172138  0.1626937509029920  0.6375602458340177
  0.3243372242720065  0.0810703332992504  0.1276958747419577
  0.6750155903508543  0.9579299250929690  0.8901493210385785
  0.8219630912173239  0.5111190537062549  0.0792824333917133
  0.1708804998740099  0.5060886551631555  0.8779893544997343
  0.2959511066276452  0.9858216250512576  0.4480677238272601
  0.7346019668583595  0.9767697505686831  0.6168643522021545
  0.7569332001909282  0.5302634216993107  0.3350341045158852
  0.2415657882301128  0.4809928270096449  0.6372472330466291
  0.2169779132505676  0.9050542732041772  0.1694729483940449
  0.8123748824255054  0.9699516802819970  0.9290846993259989
  0.6835209054369490  0.5243506851575808  0.0223159256484981
  0.3055414086607700  0.5608278753955307  0.9267358051868617
  0.2653126836264457  0.8832260589906767  0.5196592193791896
  0.7581675724746040  0.0969222081569397  0.5560013112461734
  0.7669531176898167  0.8690085961081028  0.5953329379238129
  0.2789588829415331  0.1078037004163780  0.4753222594370839
  0.7264103736692455  0.4228225100907382  0.3997754679389427
  0.2723865385925231  0.5810921893545721  0.5618944249192749
  0.2714617860703833  0.3560113652664735  0.6578172256015038
  0.7291648229017652  0.6509285864673724  0.3400004529404223
  0.1753136839014608  0.8596434754169640  0.7186859802209098
  0.8170053085101077  0.1742845787296817  0.2885925545248200
  0.8717579872318232  0.8161707262712752  0.3985454834541592
  0.1232837860642236  0.2019476966533790  0.5932938702249431
  0.6774107588338310  0.3084378432651646  0.6811172628434270
  0.3583061201266812  0.6615735193903831  0.3549895824734420
  0.3624627794305667  0.3255606166042244  0.4012736746603047
  0.6366215521328074  0.6731311941857278  0.5650294704343639
  0.1535184786023598  0.1618418662866433  0.6797355757906798
  0.8300094689101177  0.8470279726192484  0.3649303083918498
  0.7777746414898905  0.1554562037870985  0.2366200983739569
  0.1933931175391437  0.8739078892621134  0.8149613101051248
  0.6784076626946972  0.6436669595675997  0.6013054684849783
  0.3310769710818029  0.3650928129799427  0.3170710818225210
  0.3162200203482338  0.6696522878457802  0.3070547238207651
  0.7172116852137335  0.3269211341160476  0.7301825811068071
  0.1007640887428751  0.1682503765169590  0.0023074371531651
  0.8623744275094094  0.9816823234651044  0.8663971697213809
  0.8161719746771416  0.9684261896510437  0.0761888974982699
  0.1131215455218040  0.0810597009694442  0.0659806321896245
  0.6317379987123466  0.5323512206672640  0.0756411027831033
  0.3576212532538864  0.5719274710837731  0.8717355610736541
  0.3022732201075609  0.5917309478846818  0.0590291491034529
  0.6817581374108005  0.5121764897374623  0.8799762723185436
  0.3586247153739637  0.9587852392159386  0.4998493613303610
  0.6735537359992509  0.9760361789578809  0.5472367780766514
  0.8173984174440148  0.5199352162854821  0.4124598268406707
  0.1823548051862696  0.4812094970141517  0.5550298804205068
  0.3823109173056339  0.0959204578352918  0.2141402133508460
  0.6217107361765529  0.9528320880573222  0.7830554275781223
  0.8740170329760607  0.5101275463122238  0.1920229835542300
  0.1222328346197786  0.4743690628008976  0.7731381402113252
  0.5306555989753232  0.0429961316142375  0.0771995922261010
  0.9609339002655952  0.4210616925611699  0.8920341889838440
  0.5106482013800617  0.4655253804215123  0.4698896934416710
  0.9927156923821251 -0.0029570019292211  0.5077841975986879
  0.3056863206191013  0.1273057638288652  0.9581517458495199
  0.6763254040195945  0.9621733825243702  0.0551513563882803
  0.8237003556018704  0.4976948356855171  0.9182958888697855
  0.1639582971624413  0.5327650197461800  0.0326341719149718
  0.0782142618450497  0.6414584499953412  0.0895646284017054
 
             NaN             NaN             NaN
             NaN             NaN             NaN
             NaN             NaN             NaN
             NaN             NaN             NaN
             NaN             NaN             NaN
             NaN             NaN             NaN
             NaN             NaN             NaN
             NaN             NaN             NaN
             NaN             NaN             NaN
             NaN             NaN             NaN
             NaN             NaN             NaN
             NaN             NaN             NaN
             NaN             NaN             NaN
             NaN             NaN             NaN
             NaN             NaN             NaN
             NaN             NaN             NaN
             NaN             NaN             NaN
             NaN             NaN             NaN
             NaN             NaN             NaN
             NaN             NaN             NaN
             NaN             NaN             NaN
             NaN             NaN             NaN
             NaN             NaN             NaN
             NaN             NaN             NaN
             NaN             NaN             NaN
             NaN             NaN             NaN
             NaN             NaN             NaN
             NaN             NaN             NaN
             NaN             NaN             NaN
             NaN             NaN             NaN
             NaN             NaN             NaN
             NaN             NaN             NaN
             NaN             NaN             NaN
             NaN             NaN             NaN
             NaN             NaN             NaN
             NaN             NaN             NaN
             NaN             NaN             NaN
             NaN             NaN             NaN
             NaN             NaN             NaN
             NaN             NaN             NaN
             NaN             NaN             NaN
             NaN             NaN             NaN
             NaN             NaN             NaN
             NaN             NaN             NaN
             NaN             NaN             NaN
             NaN             NaN             NaN
             NaN             NaN             NaN
             NaN             NaN             NaN
             NaN             NaN             NaN
             NaN             NaN             NaN
             NaN             NaN             NaN
             NaN             NaN             NaN
             NaN             NaN             NaN
             NaN             NaN             NaN
             NaN             NaN             NaN
             NaN             NaN             NaN
             NaN             NaN             NaN
             NaN             NaN             NaN
             NaN             NaN             NaN
             NaN             NaN             NaN
             NaN             NaN             NaN
             NaN             NaN             NaN
             NaN             NaN             NaN
             NaN             NaN             NaN
             NaN             NaN             NaN
             NaN             NaN             NaN
             NaN             NaN             NaN
             NaN             NaN             NaN
             NaN             NaN             NaN
             NaN             NaN             NaN
             NaN             NaN             NaN
             NaN             NaN             NaN
             NaN             NaN             NaN
             NaN             NaN             NaN
             NaN             NaN             NaN
             NaN             NaN             NaN
             NaN             NaN             NaN
             NaN             NaN             NaN
             NaN             NaN             NaN
             NaN             NaN             NaN
             NaN             NaN             NaN
