N    C    H    Cu   Ni   O    Li        
   1.00000000000000     
    20.7257642150151469   -0.2474882257684160    0.5193354680012729
     0.3134733402124811    6.9873925384602611   -0.1364365853129350
    -0.4490920973420024   -0.0710199060375953    6.9239026810069575
   N    C    H    Cu   Ni   O    Li
    12    20    40     2     2     4     1
Direct
  0.4886512065646773  0.3344267928361299  0.7020912732261236
  0.4530216112214302  0.9892756791785202  0.2169881966353743
  0.5122716485880897  0.3597678620697041  0.1282897152678919
  0.5205071534052952  0.9338250072026082  0.7915688374047054
  1.0270027682870173  0.6363296202313387  0.8191218138399126
  0.0146817801682811  0.2495851125143322  0.2191249374913479
 -0.0152163911682393  0.6533800236068096  0.2031324944899912
  0.9642550512347678  0.2616889204896394  0.8310873973454179
  0.2016494751330049  0.9659236347199075  0.0566715339779238
  0.7516860299798855  0.0511717591291551  0.9173874568771744
  0.7306893446127384  0.4486564921997393  0.0874965156136129
  0.3113832354556266  0.4922972084447382  0.8783058724531039
  0.5020607888167079  0.4606557461613215  0.6048054134094988
  0.4805974383675466  0.8642513190764126  0.2978404485397244
  0.5089940803995653  0.4870004091731047  0.2437871758170591
  0.5137087024866542  0.8260261194859517  0.6595396657231494
  1.0188528595790445  0.7600535973789380  0.7086542087189085
  0.0066057198081142  0.1406711875671307  0.3412435321413966
 -0.0085825009683018  0.7684377607706314  0.3286366467682413
  0.9709865290245994  0.1310423528262306  0.7160961658199012
  0.2620408245690894  0.9537804261337487 -0.0257184485733685
  0.7113884554668585  0.9869926086184313  0.0486253400969021
  0.7846707704682647  0.3955518553670147  0.9288632149543855
  0.3011515989590830  0.3891167084006290  0.0382760523939555
  0.1977923503919928  0.9501110453684722  0.2662424707549473
  0.7443074021452696 -0.0072760847937507  0.7139888472673517
  0.7499380698818847  0.4750156500603165  0.2913007551627029
  0.2594190323180839  0.5030745619240800  0.7286729707456132
  0.1471678046842404 -0.0005108554126710  0.9479854154292775
  0.8030403301313070  0.1798487792483806  0.9738919953537000
  0.6723414967248814  0.4607594130573603  0.0223450258558638
  0.3682743675465006  0.5750868203498397  0.8479992331182675
  0.1530006870335318  0.8800357737674226  0.2969501999205125
  0.7482309731676378  0.1188535191789403  0.6260565302796373
  0.7816194222290958  0.8842852457573749  0.6751211749550309
  0.1976468876915267  1.0922945659848300  0.3377550865084795
  0.7231201511092834  0.3807653402653077  0.3798184829253539
  0.2539329586370297  0.6509091991594731  0.6815665945597644
  0.2715940477450649  0.4068827260619650  0.6063719228945339
  0.7405680737036738  0.6248561177111809  0.3361392279154972
  0.1231757022546170  0.5921730891513586  0.4541719046423186
  0.9317384971753458  1.0225171446780057  0.6632576469098656
  0.8474703153877702  0.8511078814697550  0.3311735630322269
  0.1145548598408386  0.2560220047525331  0.5459726267821250
  0.5978968635911384  0.1687047873887013  0.4642194234100672
  0.4074256626395507  0.5626197571442495  0.9554921980183777
  0.3760188939419322  0.1792625974130338  0.5913885619455715
  0.6288553591433328  0.6404936622495443  0.5675639823321815
  0.1482970530051624  0.2387053053863140  0.5861160064344427
  0.8147212588615841  0.8999623666749640  0.3186321599111369
  0.9163277033572494 -0.4352052620475326  0.5405410307027503
  0.1450878196800143  0.6398392263498889  0.5280902851646644
  0.6626449821210921  0.6076214871546594  0.5976773897681144
  0.3458041328875705  1.1229864833760574  0.5745658326043274
  0.3391907197018354  0.6487800296595412  0.3563236345768037
  0.6248176383739407  0.1227420961539424  0.4076344628494318
  0.1010488774822752  1.0076677582870448  1.0170080844730254
  0.8456759134017690  0.1434471770326386  0.8896597631737320
  0.8159420837124292  0.1635793075906023  0.1274706620368398
  0.1520725810203689  0.0127231572243302  0.7940633559747472
  0.6326715179262394  0.4873628848580232  0.1191650171911315
  0.3721924633277780  0.6549291079114522  0.7178815270018990
  0.3512901504304535  0.7466652974096223  1.3830245206939171
  0.6650801815587298  0.4419403644340050  0.8658304359577815
  0.2392021020736089  0.8648201957229856  0.3221060633240117
  0.6967164269538942 -0.0684812328638034  0.6860509652344936
  0.8017703613478909  0.4428836127635159  0.3110962950580524
  0.2141788154911210  0.4588635681463204  0.7879352173481411
  0.3023723777552961 -0.0683375112280445  0.0812887678949613
  0.6736452831941230  0.8944680236552552  0.9807821747200770
  0.8254592294282277  0.4839817264397192  0.9889233825211273
  0.2511867181126285  0.3413063240820146  0.0449708308087151
  0.5105955086240447  1.1710697572562629  0.9266587738722071
 -0.0020942878418167  0.4502790622126294  0.0087265161045654
  0.5059245324292172  0.6620399530949956  0.4466316483426691
  0.9996640465792440 -0.0485155011513656  0.5268923280278759
  0.2690855379200825 -0.0314868657846101  0.7991646226180771
  0.7147393172597503  1.0232717728082288  0.2250723628038639
  0.7630932734664356  0.4278932826364847  0.7553914109032064
  0.3436949199894469  0.3534919864284556  0.1665094704446552
  0.4225801210405105  0.2511017394348884  0.2513135106876007
 
             NaN             NaN             NaN
             NaN             NaN             NaN
             NaN             NaN             NaN
             NaN             NaN             NaN
             NaN             NaN             NaN
             NaN             NaN             NaN
             NaN             NaN             NaN
             NaN             NaN             NaN
             NaN             NaN             NaN
             NaN             NaN             NaN
             NaN             NaN             NaN
             NaN             NaN             NaN
             NaN             NaN             NaN
             NaN             NaN             NaN
             NaN             NaN             NaN
             NaN             NaN             NaN
             NaN             NaN             NaN
             NaN             NaN             NaN
             NaN             NaN             NaN
             NaN             NaN             NaN
             NaN             NaN             NaN
             NaN             NaN             NaN
             NaN             NaN             NaN
             NaN             NaN             NaN
             NaN             NaN             NaN
             NaN             NaN             NaN
             NaN             NaN             NaN
             NaN             NaN             NaN
             NaN             NaN             NaN
             NaN             NaN             NaN
             NaN             NaN             NaN
             NaN             NaN             NaN
             NaN             NaN             NaN
             NaN             NaN             NaN
             NaN             NaN             NaN
             NaN             NaN             NaN
             NaN             NaN             NaN
             NaN             NaN             NaN
             NaN             NaN             NaN
             NaN             NaN             NaN
             NaN             NaN             NaN
             NaN             NaN             NaN
             NaN             NaN             NaN
             NaN             NaN             NaN
             NaN             NaN             NaN
             NaN             NaN             NaN
             NaN             NaN             NaN
             NaN             NaN             NaN
             NaN             NaN             NaN
             NaN             NaN             NaN
             NaN             NaN             NaN
             NaN             NaN             NaN
             NaN             NaN             NaN
             NaN             NaN             NaN
             NaN             NaN             NaN
             NaN             NaN             NaN
             NaN             NaN             NaN
             NaN             NaN             NaN
             NaN             NaN             NaN
             NaN             NaN             NaN
             NaN             NaN             NaN
             NaN             NaN             NaN
             NaN             NaN             NaN
             NaN             NaN             NaN
             NaN             NaN             NaN
             NaN             NaN             NaN
             NaN             NaN             NaN
             NaN             NaN             NaN
             NaN             NaN             NaN
             NaN             NaN             NaN
             NaN             NaN             NaN
             NaN             NaN             NaN
             NaN             NaN             NaN
             NaN             NaN             NaN
             NaN             NaN             NaN
             NaN             NaN             NaN
             NaN             NaN             NaN
             NaN             NaN             NaN
             NaN             NaN             NaN
             NaN             NaN             NaN
             NaN             NaN             NaN
