H    Li   C    N    O    V   Mg         
   1.00000000000000     
     7.0678910859594382   -0.9052704372104944    0.5114215526608706
    -0.1584154849718373    7.5171821005753774    0.0329441364174230
     0.0715777897446143   -0.0113785933685145    6.8724656531031378
   H    Li   C    N    O    V    Mg
    14     1    10     6     2     1     1
Selective dynamics
Direct
  0.5865887636239985  0.9639806184929132  0.7086699053563116   T   T   T
  0.2134688272238765 -0.0207461376452141  0.3009801090505973   T   T   T
  0.3560046061837382  0.1947972790449275  0.2804537236505477   T   T   T
  0.1952851270273048  0.1368410962125930  0.4923671973985646   T   T   T
  0.6396523302326738  0.0525501098137106  0.2272011044793098   T   T   T
  0.5216392996730709  0.8277857091922036  0.2710664196345126   T   T   T
  0.7065966841305211  0.9215507296030425  0.4185057531664461   T   T   T
  0.3376450605138319  0.5687258256749889  0.4911941379644542   T   T   T
  0.4964479425273685  0.3603724002464042 -0.0051726967688191   T   T   T
  0.6619550070982032  0.5573161787686646  0.9272446660486405   T   T   T
  0.6593842628935286  0.3551614631972279  0.7845513550457361   T   T   T
  0.3657901845983458  0.7273337446751705  0.9150246219494903   T   T   T
  0.2359835802479801  0.5154962808906338  0.9898807906301811   T   T   T
  0.1898020771960454  0.6255257431880915  0.7659787359691704   T   T   T
  0.9412141699117711  0.4708907361514922 -0.0482132632579929   T   T   T
  0.0112914752880132  0.8163226587175422  0.0802785530142657   T   T   T
  0.9853753454682405  0.2638040630745839  0.6931782861737652   T   T   T
  0.9260003229190480  0.8403437448660304  0.6818284987845010   T   T   T
 -0.0347582785965717  0.2170321214319295  0.1040892109965577   T   T   T
  0.4563925871175911  0.0114133510981913  0.6665853713022621   T   T   T
  0.2929993356802740  0.0857911380769530  0.3830919681309042   T   T   T
  0.5867861433996177  0.9508647010956104  0.3408823200006464   T   T   T
  0.4540054175493577  0.5166213401075610  0.5571982395805883   T   T   T
  0.5720331085492321  0.4393340012240659  0.8705045820473546   T   T   T
  0.2981636998147890  0.5973719492321894  0.8612166326147226   T   T   T
  0.9788292470179830  0.6874628139273594  0.1868340522088417   T   T   T
  0.9554181180530686  0.3724769260239148  0.5758641871599878   T   T   T
  0.8862327599475570  0.7185422537687695  0.5760543659294988   T   T   T
  0.9054903405169873  0.3256896166820687  0.2109145885417296   T   T   T
  0.4449870452284697  0.0175092804663639  0.4742349793937293   T   T   T
  0.4346099576068817  0.5020434619070592  0.7533797602527472   T   T   T
  0.3367479476892574  0.0559611325791870  0.7961099005012162   T   T   T
  0.5878142297146518  0.4638801287776371  0.4475709850400699   T   T   T
  0.8571177554222038  0.5159559707191497  0.3926049159336409   T   T   T
  0.0543355185311142  0.0470415687169961  0.8744110420758180   T   T   T
 
  0.00000000E+00  0.00000000E+00  0.00000000E+00
  0.00000000E+00  0.00000000E+00  0.00000000E+00
  0.00000000E+00  0.00000000E+00  0.00000000E+00
  0.00000000E+00  0.00000000E+00  0.00000000E+00
  0.00000000E+00  0.00000000E+00  0.00000000E+00
  0.00000000E+00  0.00000000E+00  0.00000000E+00
  0.00000000E+00  0.00000000E+00  0.00000000E+00
  0.00000000E+00  0.00000000E+00  0.00000000E+00
  0.00000000E+00  0.00000000E+00  0.00000000E+00
  0.00000000E+00  0.00000000E+00  0.00000000E+00
  0.00000000E+00  0.00000000E+00  0.00000000E+00
  0.00000000E+00  0.00000000E+00  0.00000000E+00
  0.00000000E+00  0.00000000E+00  0.00000000E+00
  0.00000000E+00  0.00000000E+00  0.00000000E+00
  0.00000000E+00  0.00000000E+00  0.00000000E+00
  0.00000000E+00  0.00000000E+00  0.00000000E+00
  0.00000000E+00  0.00000000E+00  0.00000000E+00
  0.00000000E+00  0.00000000E+00  0.00000000E+00
  0.00000000E+00  0.00000000E+00  0.00000000E+00
  0.00000000E+00  0.00000000E+00  0.00000000E+00
  0.00000000E+00  0.00000000E+00  0.00000000E+00
  0.00000000E+00  0.00000000E+00  0.00000000E+00
  0.00000000E+00  0.00000000E+00  0.00000000E+00
  0.00000000E+00  0.00000000E+00  0.00000000E+00
  0.00000000E+00  0.00000000E+00  0.00000000E+00
  0.00000000E+00  0.00000000E+00  0.00000000E+00
  0.00000000E+00  0.00000000E+00  0.00000000E+00
  0.00000000E+00  0.00000000E+00  0.00000000E+00
  0.00000000E+00  0.00000000E+00  0.00000000E+00
  0.00000000E+00  0.00000000E+00  0.00000000E+00
  0.00000000E+00  0.00000000E+00  0.00000000E+00
  0.00000000E+00  0.00000000E+00  0.00000000E+00
  0.00000000E+00  0.00000000E+00  0.00000000E+00
  0.00000000E+00  0.00000000E+00  0.00000000E+00
  0.00000000E+00  0.00000000E+00  0.00000000E+00
