H    Li   C    N    O    Pt   Zn        
   1.00000000000000     
     7.3357991784629180   -1.2956095761060453    0.3079440507104639
    -0.5575208746357110    7.5562611527509844    0.0727528260190139
    -0.0922793058066929    0.0401926567823843    7.0075313080474455
   H    Li   C    N    O    Pt   Zn
    14     1    10     6     2     1     1
Selective dynamics
Direct
  0.5679285705274720  0.9696751366052054  0.7168683463425271   T   T   T
  0.2410183723203471  0.0099361447875319  0.2731453037666426   T   T   T
  0.3554256884290650  0.2390119353604303  0.3265884464808178   T   T   T
  0.1846424755287509  0.1083540641182903  0.4899891339958299   T   T   T
  0.6465661160919595  0.1332446128337914  0.2742472295395259   T   T   T
  0.5297100469101493  0.8984746742149751  0.2605380515010049   T   T   T
  0.6963791580294466 -0.0231190452309517  0.4439657348967189   T   T   T
  0.2763273441499735  0.6461487140699361  0.5872482324487434   T   T   T
  0.5358325430126428  0.3293409435304534  0.8833108235929000   T   T   T
  0.7067167187048521  0.5419873854927547  0.8638039884489759   T   T   T
  0.6428548871992745  0.4109942687181092  0.6565749330962769   T   T   T
  0.4492033268279202  0.6921243884990931  0.0103437941179422   T   T   T
  0.3034385434442712  0.4668351661723568  0.0241856822265483   T   T   T
  0.2341559443058130  0.6419060955203434  0.8925081178027137   T   T   T
  0.7136016355073611  0.6672914632539776  0.3348951783650746   T   T   T
  0.9573892483264916  0.7692861801747291  0.0325682163359938   T   T   T
  0.9608333174611275  0.1887810912462272  0.6752363528869287   T   T   T
  0.9340196562678837  0.7942973137300033  0.6270157642003807   T   T   T
  0.9820504395165900  0.1611073396952895  0.0780329330235318   T   T   T
  0.4432955742848173  0.0130754500015832  0.6741964763370222   T   T   T
  0.2961745007619011  0.1019550407947872  0.3884950680047550   T   T   T
  0.5863058074637379  0.0086882505566822  0.3590259945386350   T   T   T
  0.3979071897661318  0.5872945457244951  0.5867692593036264   T   T   T
  0.5917678007690305  0.4511047455719090  0.7926291629669715   T   T   T
  0.3521831201850446  0.5877604104791645  0.9305983392560687   T   T   T
  0.9363713319213445  0.6452390338895573  0.1439450826253341   T   T   T
  0.9435794219707241  0.3033545311394851  0.5663707397984604   T   T   T
 -0.0346754839821164  0.6809668043933959  0.5244877531826383   T   T   T
  0.9931427585840094  0.2848350373203172  0.1810371091553360   T   T   T
  0.4382555080674192  0.0368556278449690  0.4841961631241801   T   T   T
  0.4446907534931688  0.5420162169403843  0.7600327298982218   T   T   T
  0.3274143692504115  0.0363512988043856  0.7977791602513322   T   T   T
  0.4792425541990746  0.5661304857436672  0.4311877740477557   T   T   T
  0.9618571013483133  0.4762393276449439  0.3524423273641453   T   T   T
  0.0056686593555900 -0.0095376796422713  0.8520585970764434   T   T   T
 
  0.00000000E+00  0.00000000E+00  0.00000000E+00
  0.00000000E+00  0.00000000E+00  0.00000000E+00
  0.00000000E+00  0.00000000E+00  0.00000000E+00
  0.00000000E+00  0.00000000E+00  0.00000000E+00
  0.00000000E+00  0.00000000E+00  0.00000000E+00
  0.00000000E+00  0.00000000E+00  0.00000000E+00
  0.00000000E+00  0.00000000E+00  0.00000000E+00
  0.00000000E+00  0.00000000E+00  0.00000000E+00
  0.00000000E+00  0.00000000E+00  0.00000000E+00
  0.00000000E+00  0.00000000E+00  0.00000000E+00
  0.00000000E+00  0.00000000E+00  0.00000000E+00
  0.00000000E+00  0.00000000E+00  0.00000000E+00
  0.00000000E+00  0.00000000E+00  0.00000000E+00
  0.00000000E+00  0.00000000E+00  0.00000000E+00
  0.00000000E+00  0.00000000E+00  0.00000000E+00
  0.00000000E+00  0.00000000E+00  0.00000000E+00
  0.00000000E+00  0.00000000E+00  0.00000000E+00
  0.00000000E+00  0.00000000E+00  0.00000000E+00
  0.00000000E+00  0.00000000E+00  0.00000000E+00
  0.00000000E+00  0.00000000E+00  0.00000000E+00
  0.00000000E+00  0.00000000E+00  0.00000000E+00
  0.00000000E+00  0.00000000E+00  0.00000000E+00
  0.00000000E+00  0.00000000E+00  0.00000000E+00
  0.00000000E+00  0.00000000E+00  0.00000000E+00
  0.00000000E+00  0.00000000E+00  0.00000000E+00
  0.00000000E+00  0.00000000E+00  0.00000000E+00
  0.00000000E+00  0.00000000E+00  0.00000000E+00
  0.00000000E+00  0.00000000E+00  0.00000000E+00
  0.00000000E+00  0.00000000E+00  0.00000000E+00
  0.00000000E+00  0.00000000E+00  0.00000000E+00
  0.00000000E+00  0.00000000E+00  0.00000000E+00
  0.00000000E+00  0.00000000E+00  0.00000000E+00
  0.00000000E+00  0.00000000E+00  0.00000000E+00
  0.00000000E+00  0.00000000E+00  0.00000000E+00
  0.00000000E+00  0.00000000E+00  0.00000000E+00
