H    Li   C    N    O    Pb   Pt        
   1.00000000000000     
     7.3465746367673557   -1.3879829837417950   -0.0024559964753892
    -0.6224991014909553    7.9542303558038077    0.1249314651553311
    -0.4185305981053278    0.0698188916724600    7.0292943266729200
   H    Li   C    N    O    Pb   Pt
    14     1    10     6     2     1     1
Selective dynamics
Direct
  0.5848674661628568  0.9137186210965312  0.6250363095791173   T   T   T
  0.2011292614958619  0.1001186856214954  0.3244370795751104   T   T   T
  0.4002937277240460  0.2828497778270035  0.3394963722288771   T   T   T
  0.2829540498816299  0.1981446501575674  0.5499965499547758   T   T   T
  0.5448159190494267  0.0885253343829472  0.1733409018652376   T   T   T
  0.3973362213357854  0.8789011743726686  0.2150541180303593   T   T   T
  0.6301968002315864 -0.0625241481479550  0.3188343152352215   T   T   T
  0.2946033227984954  0.6387499298284588  0.6500689911346708   T   T   T
  0.5583821966968605  0.3006651621831514  0.8617520941467529   T   T   T
  0.7225185988653700  0.4965217939473944  0.9411281570734598   T   T   T
  0.6906646118314711  0.4454959538567725  0.6939185501053341   T   T   T
  0.4822850753400201  0.6084379240897925  0.0897418385681326   T   T   T
  0.3108506963637842  0.4109492297111411  0.0305540492310779   T   T   T
  0.2782307687147060  0.6167138892849253  0.9460193534018033   T   T   T
  0.7373436693419350  0.6667307228136810  0.4267921186581639   T   T   T
  0.8699757124377183  0.8369304319014317  0.0416721078928502   T   T   T
  0.9532926802456811  0.1604246194652361  0.6111643495988570   T   T   T
  0.9661698965703279  0.7949746765466981  0.6679873438257583   T   T   T
  0.9100350977431844  0.1695211274140058 -0.0191581716927547   T   T   T
  0.4878715896659706 -0.0026551529492198  0.6264347879450147   T   T   T
  0.3249342626812067  0.1641970802042492  0.4134248835012136   T   T   T
  0.5073934023498962  0.9845383850921223  0.2810687101834000   T   T   T
  0.4175726869833441  0.5868369136613621  0.6417559238875379   T   T   T
  0.6207100723972336  0.4379893775590681  0.8274726526235928   T   T   T
  0.3807375668314253  0.5419891971954109  0.9793085562023316   T   T   T
  0.8327675991528682  0.7670592702097579  0.1886878421251663   T   T   T
  0.9603614904451311  0.2818274808381153  0.5099976695431339   T   T   T
 -0.0068878654923281  0.6738124692358330  0.5908988520860292   T   T   T
  0.9275249615401100  0.2776114940752844  0.0951931731025416   T   T   T
  0.4446462079584256  0.0490123781052942  0.4483943282123036   T   T   T
  0.4753726417195606  0.5294585282030508  0.8078657323291002   T   T   T
  0.4324760438784571  0.0377658486880136  0.7777815263981518   T   T   T
  0.4918726329279797  0.5844974280119007  0.4854344166278571   T   T   T
  0.0452341451150809  0.5137150422194345  0.3010350327575225   T   T   T
  0.9227417890148907  0.9845017032973736  0.8137274840623021   T   T   T
 
  0.00000000E+00  0.00000000E+00  0.00000000E+00
  0.00000000E+00  0.00000000E+00  0.00000000E+00
  0.00000000E+00  0.00000000E+00  0.00000000E+00
  0.00000000E+00  0.00000000E+00  0.00000000E+00
  0.00000000E+00  0.00000000E+00  0.00000000E+00
  0.00000000E+00  0.00000000E+00  0.00000000E+00
  0.00000000E+00  0.00000000E+00  0.00000000E+00
  0.00000000E+00  0.00000000E+00  0.00000000E+00
  0.00000000E+00  0.00000000E+00  0.00000000E+00
  0.00000000E+00  0.00000000E+00  0.00000000E+00
  0.00000000E+00  0.00000000E+00  0.00000000E+00
  0.00000000E+00  0.00000000E+00  0.00000000E+00
  0.00000000E+00  0.00000000E+00  0.00000000E+00
  0.00000000E+00  0.00000000E+00  0.00000000E+00
  0.00000000E+00  0.00000000E+00  0.00000000E+00
  0.00000000E+00  0.00000000E+00  0.00000000E+00
  0.00000000E+00  0.00000000E+00  0.00000000E+00
  0.00000000E+00  0.00000000E+00  0.00000000E+00
  0.00000000E+00  0.00000000E+00  0.00000000E+00
  0.00000000E+00  0.00000000E+00  0.00000000E+00
  0.00000000E+00  0.00000000E+00  0.00000000E+00
  0.00000000E+00  0.00000000E+00  0.00000000E+00
  0.00000000E+00  0.00000000E+00  0.00000000E+00
  0.00000000E+00  0.00000000E+00  0.00000000E+00
  0.00000000E+00  0.00000000E+00  0.00000000E+00
  0.00000000E+00  0.00000000E+00  0.00000000E+00
  0.00000000E+00  0.00000000E+00  0.00000000E+00
  0.00000000E+00  0.00000000E+00  0.00000000E+00
  0.00000000E+00  0.00000000E+00  0.00000000E+00
  0.00000000E+00  0.00000000E+00  0.00000000E+00
  0.00000000E+00  0.00000000E+00  0.00000000E+00
  0.00000000E+00  0.00000000E+00  0.00000000E+00
  0.00000000E+00  0.00000000E+00  0.00000000E+00
  0.00000000E+00  0.00000000E+00  0.00000000E+00
  0.00000000E+00  0.00000000E+00  0.00000000E+00
