N    C    H    Cu   Ni   O    Li        
   1.00000000000000     
    21.1790849808857722   -1.8711348862461299    0.3174012882676350
    -0.5441813249719164    7.1268234374905362   -0.2378487484544030
    -0.6125781582273578   -0.1199132250294800    6.9656480045031453
   N    C    H    Cu   Ni   O    Li
    12    20    40     2     2     4     1
Direct
  0.4452331261479180  0.3278249851703537  0.7706646593206967
  0.4855508670617101  0.8839512797178782  0.1931804744918187
  0.5021666301111092  0.3002132460611478  0.1685358801166420
  0.5154297353870849  0.9267676979136894  0.7865779268397318
  0.0125523857610245  0.6941559606233584  0.8137088176860626
  0.0153536665659066  0.2881954950820854  0.2217566722248007
  0.9904831118491167  0.6714933782437557  0.2076554620421063
  0.9911932921880438  0.2852341391681243  0.8175942106255539
  0.2249692737684137  0.9504568765052972  0.0878763196746550
  0.7552643728889346  0.0608710358797795  0.9148941175167106
  0.7287136903715952  0.4386521610737540  0.0928404859781104
  0.3012391075574091  0.5400135110033614  0.9137360557018498
  0.4732660373676928  0.4268313957858285  0.6640909717958342
  0.4977334308112676  0.7761516254463594  0.3065445476245013
  0.4992272427600620  0.4134585078168194  0.2938320199541153
  0.5092435154474416  0.7981408896144733  0.6723671538379633
  0.0059078440860885  0.8057480395251952  0.6984698644106733
  0.0078601573175196  0.1686204878689317  0.3322756143649082
  0.9966853918618472  0.7955391946835441  0.3259571653737148
  0.9970146293006145  0.1678910994386877  0.7011944049423458
  0.2896326659889683  0.9796300883385894  0.0697974105925084
  0.7194810925320708  0.9597544618249694  0.0401933366984466
  0.7826955900773306  0.4180669432101671  0.9417864993615086
  0.2830589753287176  0.4153195867992941  0.0522098651537085
  0.2025809317428639  0.8933890515220370  0.2735753859908914
  0.7486630542322047  0.0040701030003772  0.7105384125294665
  0.7470355963415775  0.4627237967514640  0.2989607204094358
  0.2559637392574283  0.5593878256993512  0.7509794686328071
  0.1810251749988603  0.9818774618485607  0.9461406758129085
  0.8035902270535925  0.2207974738140466 -0.0171020492740388
  0.6723220882836226  0.4395758441704090  0.0178362893390985
  0.3625820186164213  0.6318707142080782  0.9210202297166451
  0.1681736309091489  0.7608916897645693  0.2551725650923677
  0.7533898668036659  0.1317437661482999  0.6282174101725237
  0.7855701909775221  0.9200302029599901  0.6742992580766956
  0.1794358023864179  0.0048094183205103  0.3370529230505120
  0.7235882342314995  0.3416999539242568  0.3727956580549802
  0.2592555115922132  0.7095747475470090  0.7203573141717348
  0.2671365725030250  0.4788318847008038  0.6239943605591335
  0.7339920350287192  0.5948527286912083  0.3567105064558363
  0.1097862305064516  0.5668933499436477  0.4859352258322806
  0.8595263371870441  0.2635590776864639  0.4759795292596088
  0.8652459868113046  0.8051938666978236  0.4272492948232643
  0.1227316004913436  0.2028212016891864  0.5485768431684055
  0.5980918357340794  0.1641482670195550  0.4967433946193875
  0.3607947164898252  0.6711173853595178  0.4991156097370695
  0.3245006666742488  0.1931023997922683  0.5776104717379832
  0.6228426620447323  0.6296993617102624  0.5519714163427105
  0.1584260971246945  0.2311428176788589  0.5651565951110862
  0.8384740123132962  0.8540195546328693  0.3904156721319934
  0.8910858361831681  0.2328832888167610  0.4637507274912311
  0.1241606263523829  0.6451502032622018  0.5586994213422410
  0.6543999031663279  0.5998623951607446  0.5809976321135290
  0.3218585517028004  0.2415350387435745  0.4848085062418238
  0.3706461378132247  0.7638985104885206  0.4542663833929598
  0.6323721076953188  0.1580863253722469  0.4830812851644285
  0.1308758003905193  0.9588113444801127 -0.0257069520170642
  0.8466722365115429  0.2175638844635678  0.9057441602018746
  0.8154841759977828  0.2091703815469065  0.1367277319735114
  0.1976378336178984  0.0250412306006980  0.8092696865384692
  0.6331718331225982  0.4552843657114090  0.1066350772744743
  0.3771792256319919  0.7214172298596119  0.8060505617285612
  0.3931115508086409  0.6222337424272529  0.0502266118374981
  0.6664854246410963  0.4254184662426514  0.8607760412960789
  0.2437404833544221  0.8743046085742223  0.3697895288188012
  0.7014528500425542  0.9187590684438131  0.6722634414784068
  0.7988861825945687  0.4716663058470525  0.3226295114881235
  0.2073648222683155  0.5030760637246519  0.7859593769071703
  0.3174089281902065  0.9441989032901429  0.1982665439381362
  0.6843687147035961  0.8426019624336677  0.9654399654048638
  0.8220385856884017  0.5302045626204477  0.0095132026010822
  0.2313047465991648  0.3597239396821800  1.0425055803349563
  0.5068664706684209  0.0811895736045981  1.0069720010122243
  0.9999852043908090  0.4836388440162918  0.0140608528126707
  0.4994156625794537  0.5999426374695938  0.4866302199260854
  1.0015045286235793  0.9844982555250043  0.5140806128753221
  0.3149057646191663  0.0410650307386735  0.9237634986250027
  0.7240541847853275  0.9895925286673091  0.2169292564473153
  0.7613936886971368  0.4394610871067139  0.7680107130864365
  0.3227134273228627  0.3681743099441339  0.1734774525863590
  0.3923726365113243  0.2459224254882678  0.9829453425560049
 
             NaN             NaN             NaN
             NaN             NaN             NaN
             NaN             NaN             NaN
             NaN             NaN             NaN
             NaN             NaN             NaN
             NaN             NaN             NaN
             NaN             NaN             NaN
             NaN             NaN             NaN
             NaN             NaN             NaN
             NaN             NaN             NaN
             NaN             NaN             NaN
             NaN             NaN             NaN
             NaN             NaN             NaN
             NaN             NaN             NaN
             NaN             NaN             NaN
             NaN             NaN             NaN
             NaN             NaN             NaN
             NaN             NaN             NaN
             NaN             NaN             NaN
             NaN             NaN             NaN
             NaN             NaN             NaN
             NaN             NaN             NaN
             NaN             NaN             NaN
             NaN             NaN             NaN
             NaN             NaN             NaN
             NaN             NaN             NaN
             NaN             NaN             NaN
             NaN             NaN             NaN
             NaN             NaN             NaN
             NaN             NaN             NaN
             NaN             NaN             NaN
             NaN             NaN             NaN
             NaN             NaN             NaN
             NaN             NaN             NaN
             NaN             NaN             NaN
             NaN             NaN             NaN
             NaN             NaN             NaN
             NaN             NaN             NaN
             NaN             NaN             NaN
             NaN             NaN             NaN
             NaN             NaN             NaN
             NaN             NaN             NaN
             NaN             NaN             NaN
             NaN             NaN             NaN
             NaN             NaN             NaN
             NaN             NaN             NaN
             NaN             NaN             NaN
             NaN             NaN             NaN
             NaN             NaN             NaN
             NaN             NaN             NaN
             NaN             NaN             NaN
             NaN             NaN             NaN
             NaN             NaN             NaN
             NaN             NaN             NaN
             NaN             NaN             NaN
             NaN             NaN             NaN
             NaN             NaN             NaN
             NaN             NaN             NaN
             NaN             NaN             NaN
             NaN             NaN             NaN
             NaN             NaN             NaN
             NaN             NaN             NaN
             NaN             NaN             NaN
             NaN             NaN             NaN
             NaN             NaN             NaN
             NaN             NaN             NaN
             NaN             NaN             NaN
             NaN             NaN             NaN
             NaN             NaN             NaN
             NaN             NaN             NaN
             NaN             NaN             NaN
             NaN             NaN             NaN
             NaN             NaN             NaN
             NaN             NaN             NaN
             NaN             NaN             NaN
             NaN             NaN             NaN
             NaN             NaN             NaN
             NaN             NaN             NaN
             NaN             NaN             NaN
             NaN             NaN             NaN
             NaN             NaN             NaN
