N    C    H    Cr   Mn   O    Li        
   1.00000000000000     
    17.8186667933233842   -0.2168523029642490    0.7319095880215890
    -0.5936228179772939    7.2532232160534678   -0.0550958814908194
    -1.4523330282119515   -0.0979981955663377    6.8622741267465717
   N    C    H    Cr   Mn   O    Li
    12    20    40     2     2     4     1
Direct
  0.4832847499209560  0.1590919409843875  0.7911955456508379
  0.5098218476042926  0.7822434806254348  0.1933660371490910
  0.5149497937336868  0.1695461804708421  0.1903028690804940
  0.4798002292415406  0.7722815784782748  0.7908419710379453
  1.0018473227868470  0.7072971876587900  0.7969158050689286
  0.0098673600578619  0.3235289325931081  0.1865117636082679
  0.0278459715344746  0.7153527184948494  0.1966750479611035
  0.9766048892196384  0.3083384166836564  0.7905404062892382
  0.2853866135728907 -0.0539552158086424  0.1635191315732238
  0.7118928974591755  0.9956851056473269  0.8331205032651154
  0.7874428333878858  0.5275811360165560  0.1509847110081466
  0.2146586581137996  0.5050267045610857  0.8468466612228333
  0.4829637166789748  0.2760189915258877  0.6743767609152413
  0.5041862983760838  0.6629837888196918  0.3057679401210258
  0.5081004943418123  0.2851187178134009  0.3039207967747864
  0.4787239888517376  0.6541823051336598  0.6735009531654481
  0.0018266167779501  0.8260321488567578  0.6800012858581465
  0.0409840086384915  0.1923720715972426  0.2591475043035928
  0.0205364195478972  0.8290419417181852  0.3132500511621303
  0.9840876444011836  0.1970117372001155  0.6724349704539642
  0.3582173813576163  0.9820954509562874  0.1487604151520964
  0.6355740253317237  0.9860034219451602  0.8285661777707249
  0.8637260840021602  0.5387575221867251  0.1567820995121895
  0.1419437388622453  0.4578358733835759  0.8526249984329609
  0.2594627600041906  0.0223073224851870  0.3321878418452767
  0.7415701832142783  0.9968983375327471  0.6488948941806045
  0.7585441116714524  0.5445517191649769  0.3354823085991747
  0.2492076181860126  0.4256661374338014  0.6917928686283831
  0.2287890441665117  0.8392016188607831  0.0223027383957297
  0.7633878296174025  0.0038787725191788  0.0010721421464924
  0.7360522584857212  0.4996832498422980  0.9837289380994820
  0.2619828270203414  0.6372012861144947  0.9934846300724989
  0.2205676466166540  0.9154759406259014  0.3840805443864512
  0.7792124409132745  0.1249485290746852  0.6438183020917303
  0.7745924600094268  0.8769310940142038  0.6416302595273393
  0.2271957455324510  0.1427634612029421  0.2897710550088129
  0.7205445971912370  0.4196630247909338  0.3527340132106203
  0.2836025235279515  0.5360759313350192  0.6304486081854213
  0.2865443038006941  0.3180700679091147  0.7481343505838041
  0.7258523631201054  0.6662123273202946  0.3320457241356661
  0.1558707815897675  0.7414665324729091  0.5486005386191725
  0.8556068469256765  0.2225297323097453  0.4199775686982506
  0.9130517541743249  0.9084968900546424  0.4663024281370097
  0.0984411198528760  0.0211597261540152  0.5193998474046841
  0.6315304145827796  0.3045634760967874  0.5585120817519696
  0.3552575914065055  0.7209988273556034  0.4954948046572621
  0.3812828981604964  0.3518144073470868  0.3649678511770834
  0.6276323657903661  0.6516883761568926  0.5684208174453478
  0.0891164174422369  0.0751940963708698  0.6224554184973295
  0.9068618844572875  0.9870096745893637  0.3808428371850783
  0.8200597184756625  0.2121195272029214  0.3495996673686458
  0.1840441610626814  0.7754884645540991  0.6323581695740216
  0.6595035829106604  0.6510637354304919  0.6493466852576102
  0.3670715450553900  0.4421415950185761  0.3890487934570532
  0.3207312143376643  0.7207965496061108  0.4224644708879292
  0.6671619992637750  0.3116265419534855  0.6284632917250080
  0.1120097178761019  0.1596277973613443  1.1401334042898019
  0.7444516289195064 -0.0082788256882664  0.1376271183799990
  0.8237017519843395  0.0287366810847809 -0.0002285318340689
  0.2057372861161044 -0.0506167256586264  0.9170309687342691
  0.6754867556903458  0.4866358140380528  0.9921520171038205
  0.2622712287729144  0.5723126401731685  0.1355569977554398
  0.3212397422325771  0.6351227396314096  0.9642744502227941
  0.7587254346190806  0.4859899579473048  0.8511338792083302
  0.3085435120392644  0.0630896463947440  0.4448579029018725
  0.6935473654781253  0.9901796777318150  0.5284079329610564
  0.8068664078774580  0.5579995145734442  0.4561014873609887
  0.2036412522377791  0.3645305416491676  0.5788795605943399
  0.3949503341260878  1.0439085461969093  0.2754108074482060
  0.5995892163158878  0.9786670164089255  0.6871108151493845
  0.9003458626664581  0.5540005178997544  0.2973898905283643
  0.1093895864466140  0.3778680207576219  0.7308632355621283
  0.4965623421104483  0.9699795781283868  0.9913767919622752
 -0.0022428977258249  0.5079923924217467  0.9956871620052770
  0.4858202925395175  0.4662703624419280  0.4823211984513990
  0.0059591633337787  0.0084526939175671  0.4928584016715153
  0.3845511942240474  0.9456823974830402  0.9966590836458077
  0.6095462049719695  0.9868208821562632  0.9853387170241195
  0.8893573768738527  0.5273909035431247 -0.0009587865850692
  0.1113230196590391  0.5088653569236221  0.9929340903669436
  0.1109485690763963  0.7833471186752148  0.0272190635275235
 
             NaN             NaN             NaN
             NaN             NaN             NaN
             NaN             NaN             NaN
             NaN             NaN             NaN
             NaN             NaN             NaN
             NaN             NaN             NaN
             NaN             NaN             NaN
             NaN             NaN             NaN
             NaN             NaN             NaN
             NaN             NaN             NaN
             NaN             NaN             NaN
             NaN             NaN             NaN
             NaN             NaN             NaN
             NaN             NaN             NaN
             NaN             NaN             NaN
             NaN             NaN             NaN
             NaN             NaN             NaN
             NaN             NaN             NaN
             NaN             NaN             NaN
             NaN             NaN             NaN
             NaN             NaN             NaN
             NaN             NaN             NaN
             NaN             NaN             NaN
             NaN             NaN             NaN
             NaN             NaN             NaN
             NaN             NaN             NaN
             NaN             NaN             NaN
             NaN             NaN             NaN
             NaN             NaN             NaN
             NaN             NaN             NaN
             NaN             NaN             NaN
             NaN             NaN             NaN
             NaN             NaN             NaN
             NaN             NaN             NaN
             NaN             NaN             NaN
             NaN             NaN             NaN
             NaN             NaN             NaN
             NaN             NaN             NaN
             NaN             NaN             NaN
             NaN             NaN             NaN
             NaN             NaN             NaN
             NaN             NaN             NaN
             NaN             NaN             NaN
             NaN             NaN             NaN
             NaN             NaN             NaN
             NaN             NaN             NaN
             NaN             NaN             NaN
             NaN             NaN             NaN
             NaN             NaN             NaN
             NaN             NaN             NaN
             NaN             NaN             NaN
             NaN             NaN             NaN
             NaN             NaN             NaN
             NaN             NaN             NaN
             NaN             NaN             NaN
             NaN             NaN             NaN
             NaN             NaN             NaN
             NaN             NaN             NaN
             NaN             NaN             NaN
             NaN             NaN             NaN
             NaN             NaN             NaN
             NaN             NaN             NaN
             NaN             NaN             NaN
             NaN             NaN             NaN
             NaN             NaN             NaN
             NaN             NaN             NaN
             NaN             NaN             NaN
             NaN             NaN             NaN
             NaN             NaN             NaN
             NaN             NaN             NaN
             NaN             NaN             NaN
             NaN             NaN             NaN
             NaN             NaN             NaN
             NaN             NaN             NaN
             NaN             NaN             NaN
             NaN             NaN             NaN
             NaN             NaN             NaN
             NaN             NaN             NaN
             NaN             NaN             NaN
             NaN             NaN             NaN
             NaN             NaN             NaN
