N    C    H    Ni   Pd   O    Li
   1.00000000000000     
  19.1616586894159013   0.0756441099105576   1.0142606113893999
  -0.0723032514218258   7.2843863234764896   0.1258244036834590
  -1.8531022659871002   0.1338670200484800   7.1297451252162096
N    C    H    Ni   Pd   O    Li
12  20  40  2  2  4  1  
Direct
  0.5154180945596047  0.2461106026302993  0.8478897992606257  
  0.5118447663269301  0.8501968143206019  0.2192293538314945  
  0.5119502890066048  0.2430092400996273  0.2365962308111460  
  0.5130567305070690  0.8539166976006782  0.8303264344460358  
  0.9754648250808228  0.6783199745413733  0.8241612206431931  
  0.9661012740784276  0.3078202733049223  0.2014711811855657  
  0.0552458469294499  0.7454523167932814  0.2653393639622311  
  0.9657205743090904  0.2860589920060762  0.8134000245341818  
  0.2931198790171214  0.0365281550471635  0.0615385038760170  
  0.7388857456949226  0.0584314167262244  0.0367546412628142  
  0.7420717830788881  0.5656183037857659  0.0450692412169855  
  0.1997814020835717  0.4116786176427654  0.7435582449086705  
  0.5127453784251730  0.3590735984631210  0.7302216590340723  
  0.5100782537353374  0.7375476558835878  0.3351246708945955  
  0.5102172954862273  0.3544569518372041  0.3462486670550512  
  0.5113284497882622  0.7424212850458199  0.7188584577621571  
  0.9847952744445870  0.7950396856778674  0.7160131338464101  
  0.9784569669612976  0.1971249709104317  0.3242442881318749  
  0.0261636069738579  0.8319631455529494  0.3590573564628715  
  0.9700131292360764  0.1771141113312386  0.7029071094843352  
  0.3641892943313704  0.0168283637751548  0.0880005798255383  
  0.6661626561630117  0.0539256179950705  0.9862673538530174  
  0.8142390004854791  0.5647103921474530  0.1086835349723431  
  0.1494102986603198  0.5177379914432080  0.7893101427770631  
  0.2540764896613180  0.9804817516861540  0.2044533742351337  
  0.7818847293508556  0.0647826849389773  0.8926665355601613  
  0.6948665263580922  0.5463451370260760  0.1790021568446239  
  0.1994975254136364  0.3771343720981383  0.5497602086434200  
  0.2531190671521992  0.1169380712084919  0.8876380281507170  
  0.7727841070822511  0.0553670519307737  0.2179894752906732  
  0.7123891006354247  0.5869127543300874  0.8616888658225190  
  0.2555648732583556  0.3284308015348180  0.8866576764716947  
  0.2169534143934192  0.8685706126874185  0.1567514074572756  
  0.8168312719120403  0.1852421026495601  0.9093960808259663  
  0.8145639727038763  0.9400702335522608  0.9035919586910616  
  0.2233747731428431  0.0962930680861702  0.2399008912139679  
  0.6602697292462233  0.4264937693460270  0.1483670314805427  
  0.2510053195134449  0.4164993694568603  0.5163983187974750  
  0.1898293386369981  0.2311191399140352  0.5215888480809673  
  0.6616771231564802  0.6697164342034231  0.1715251093151323  
  0.3194809220145760  0.6995004295962507  0.7312915004423050  
  0.8372056373078947  0.3472028133454566  0.5785311192262799  
  0.8325452110069572  0.7349448215971032  0.5958501123931861  
  0.1736750314238774  0.8493473678689966  0.5089430182840881  
  0.6541993318700714  0.2655999924637185  0.5002740056993954  
  0.3553061966981069  0.5493070423477457  0.3216876330973242  
  0.3762300655904781  0.1456529010069511  0.6043091971066274  
  0.6507354060159874  0.8969935076826691  0.4719189941103722  
  0.2103012874683680  0.8503118569453260  0.5688014491427410  
  0.8063255902534850  0.7736851662441026  0.5139349774897918  
  0.8019329299137942  0.3260554114050057  0.5181061928504178  
  0.3576613861940398  0.7295924856412129  0.7544191582289429  
  0.6769559021271231  0.8593748608196504  0.5544294447958584  
  0.3567254103654973  0.1802292571396919  0.5106164403273268  
  0.3165825738419588  0.5649231418690523  0.2799035987780319  
  0.6800277999796192  0.3109913888133562  0.5754987440033443  
  0.2759405771858351  0.0656725942914806  0.7739944845723999  
  0.7403173398726428  0.0491055341154212  0.3226632156810681  
  0.8304295721402066  0.0615558011371098  0.2488155265543794  
  0.1978148312942747  0.0695147944824156  0.8710600437227350  
  0.6548498799211238  0.5894316736831690  0.8214821844673871  
  0.3079683506048254  0.3760858396915407  0.8656009289366070  
  0.2472364710265972  0.3773497527725563  0.0196644342011161  
  0.7478582973828922  0.5995311641989600  0.7644487086621983  
  0.2916210418074764  0.9324992639565344  0.3292149989221531  
  0.7465180193029081  0.0742205043045443  0.7564315303934769  
  0.7271829865973197  0.5289162862962793  0.3187592271723598  
  0.1570956838681601  0.4583215714209098  0.4609684546791877  
  0.3895718867448262  0.9578381729826349  0.2250553660525635  
  0.6448665139842797  0.0578807962450776  0.8362555639492657  
  0.8315637451842988  0.5368204999014513  0.2584292123480370  
  0.1091870410290673  0.5683668788186350  0.6691486779318770  
  0.5141072349015707  0.0487677237224705  0.0338626979012834  
  0.9480557907716436  0.4655658047090789  0.9772126394997056  
  0.5100262765677216  0.5484404090018059  0.5322102950998897  
  0.9894451808458724  0.9976089250761160  0.5251143044803964  
  0.3992600458494423  0.0609243767359459  0.9674083612064244  
  0.6274774889439799  0.0464740177444863  0.1051515682194261  
  0.8569119721624254  0.5928064482059380  0.0007124865142514  
  0.1469537630370030  0.5585137852364984  0.9516641054613576  
  0.0677212022918961  0.6460622828091643  0.0348682066564448  
