N    C    H    Fe   Cu   O    Li        
   1.00000000000000     
    19.1081791016011451    1.0774214213791400    2.4287964964649902
     0.6400922945815386    7.5721776655567714   -0.1137332995274040
    -1.1377792317740838   -0.8691428231310474    7.5222552898163109
   N    C    H    Fe   Cu   O    Li
    12    20    40     2     2     4     1
Direct
  0.4815738668038198  0.2422408969186518  0.8052673527960049
  0.5770868212621239  0.6958902595093478  0.2945929450114017
  0.4725056496582830  0.2207433865933286  0.2163012577243041
  0.4772503099734458  0.8365081501107441  0.8286945110658029
  0.0229931193895677  0.5668099215607394  0.7768733110673079
  0.0297122963293011  0.2557645434894368  0.0973788989041924
  0.9858218239886406  0.6449780255193662  0.1414786587376712
  0.9719611967251832  0.2156946980278394  0.7276463862817414
  0.2645453720920573  0.0779845352709915  0.1443404085473930
  0.7045236999913385  0.0109434666921273  0.9273118341942941
  0.7707901930805876  0.4644252459551773  0.1060684880769432
  0.2693466414847401  0.5499612657329241  0.8761526179542791
  0.4972643433042557  0.3350247334306853  0.7056014162491536
  0.5476658442842686  0.6226820968349355  0.3893676444657494
  0.4670176074365828  0.3364989873153015  0.3370553511204161
  0.4715128315139026  0.7173759755702122  0.7150200418315610
  0.0482763190453171  0.6416608841462696  0.6738568674756944
  0.0306139037544989  0.1556109893220508  0.2023775731641899
  0.9888868591249025  0.7771979827048762  0.2414343732165803
  0.9808407763096461  0.1254005072955198  0.5899470621003131
  0.3357964141098670  0.0707229494403148  0.1401983157491312
  0.6342495282344671  0.0391178950984338  0.8910505915119793
  0.8419836354176555  0.4418115457801293  0.1058892279475083
  0.1980357154886606  0.5841744485047939  0.8777962360714648
  0.2311866551427429  0.0842195249012817  0.3154241089311632
  0.7541139756953060  0.0207044820891550  0.7890582345242152
  0.7349813591076768  0.4407630154339910  0.2658400369742451
  0.3029609512104453  0.4340670050558683  0.7249151612577862
  0.2235105155912347  0.0861748949249707 -0.0047614617013338
  0.7294423196537844 -0.0235046595912131  0.0890982093882875
  0.7316861073898746  0.5030422789750499  0.9624821489931633
  0.3099107293164844  0.6163955833371868  1.0106852252068232
  0.2009662628448381  0.9715655502817774  0.3126558186403727
  0.7819860570658609  0.1375489621186395  0.8234103837989794
  0.7919917969025720  0.8983012102505810  0.7726585600007805
  0.1956957718325096  0.2102924079103798  0.3440738189834532
  0.7123830402257065  0.3144980437997735  0.2435556826542042
  0.3391969411717178  0.5059218244138762  0.6639388579325937
  0.3318226117875275  0.3131487646374969  0.7688883197987183
  0.6927787137863709  0.5521126173748790  0.2960719603466656
  0.1442690736995139  0.6846388732324103  0.4605853011014495
  0.8510159324467309  0.0698536876516069  0.4495993615910332
  0.8545159089098440  0.7187854937349946  0.4670247252074804
  0.1233684812363024  0.1740193437348533  0.6418190812662675
  0.6380114785918987  0.3427956830649526  0.5461145824186511
  0.3674288935547028  0.7699486556169040  0.4701045353126425
  0.3145351796609200  0.4266323059190793  0.3197647008421413
  0.6573769736461166  0.7488321782964005  0.5437217021178400
  0.1606718567527159  0.1780815409365040  0.6712463795429637
  0.8479932358559176  0.6615581517862229  0.5355886437203776
  0.8139409484312436  0.0807668407158091  0.4150426537038742
  0.1734952237673875  0.6793463487601047  0.3957186809634605
  0.6899997447881707  0.7458364778876045  0.6003948103220637
  0.2754127725917652  0.4491476108444352  0.3218660668601177
  0.3315104834354662  0.7729792342829099  0.4286462683681338
  0.6752283388285549  0.3079894382759151  0.5679307972579741
  0.1664588978285209  0.0905727490563771  1.0182126181501543
  0.6919383372413577  0.9626770301616928  0.1873827028939460
  0.7857069243469001  0.9525510318121050  0.1074875503964533
  0.2539310638181421  0.0812356454438404  0.8724151191629653
  0.6752856471972313  0.5274134223887255  0.9758877485767923
  0.3662326859465548  0.5845666013953447  0.0005527654772487
  0.2835126849739242  0.6956412483190315  0.1238154003834439
  0.7588423854849679  0.5149536282207076  0.8437508384998000
  0.2713518211347960  0.0763341047900148  0.4196261906461766
  0.7255384857123877  0.0325877735248115  0.6648577679177147
  0.7727541514814839  0.4366295490298571  0.3751499107685133
  0.2624928813313566  0.3979054052291196  0.6286085498687073
  0.3631417264338791  0.0621509975847205  0.2676214622548692
  0.6206669005923736  0.0630016834299249  0.7553327094577913
  0.8675544409023221  0.4083024314561173  0.2290273281664404
  0.1722620054598409  0.5243454525004082  0.7583922200860047
  0.4796607621213284  0.0741695387869434  0.9769933302447196
  0.9795628437156513  0.4156493265088990  0.9316247138393936
  0.4932686191008112  0.5056381024874205  0.5375909493407431
  0.0021214580415325  1.0058968716454604  0.3608723311910050
  0.3671993419928524  0.0757760297027665  0.0001358195446254
  0.5897268672802023  0.0377289511637552  0.0063530598100149
  0.8754669027832591  0.4586064302099294  0.9709651721651049
  0.1644887004481684  0.6778522929736490  1.0040055041325013
  0.0682147176766277  0.7054390341245635  1.0043183508175617
 
             NaN             NaN             NaN
             NaN             NaN             NaN
             NaN             NaN             NaN
             NaN             NaN             NaN
             NaN             NaN             NaN
             NaN             NaN             NaN
             NaN             NaN             NaN
             NaN             NaN             NaN
             NaN             NaN             NaN
             NaN             NaN             NaN
             NaN             NaN             NaN
             NaN             NaN             NaN
             NaN             NaN             NaN
             NaN             NaN             NaN
             NaN             NaN             NaN
             NaN             NaN             NaN
             NaN             NaN             NaN
             NaN             NaN             NaN
             NaN             NaN             NaN
             NaN             NaN             NaN
             NaN             NaN             NaN
             NaN             NaN             NaN
             NaN             NaN             NaN
             NaN             NaN             NaN
             NaN             NaN             NaN
             NaN             NaN             NaN
             NaN             NaN             NaN
             NaN             NaN             NaN
             NaN             NaN             NaN
             NaN             NaN             NaN
             NaN             NaN             NaN
             NaN             NaN             NaN
             NaN             NaN             NaN
             NaN             NaN             NaN
             NaN             NaN             NaN
             NaN             NaN             NaN
             NaN             NaN             NaN
             NaN             NaN             NaN
             NaN             NaN             NaN
             NaN             NaN             NaN
             NaN             NaN             NaN
             NaN             NaN             NaN
             NaN             NaN             NaN
             NaN             NaN             NaN
             NaN             NaN             NaN
             NaN             NaN             NaN
             NaN             NaN             NaN
             NaN             NaN             NaN
             NaN             NaN             NaN
             NaN             NaN             NaN
             NaN             NaN             NaN
             NaN             NaN             NaN
             NaN             NaN             NaN
             NaN             NaN             NaN
             NaN             NaN             NaN
             NaN             NaN             NaN
             NaN             NaN             NaN
             NaN             NaN             NaN
             NaN             NaN             NaN
             NaN             NaN             NaN
             NaN             NaN             NaN
             NaN             NaN             NaN
             NaN             NaN             NaN
             NaN             NaN             NaN
             NaN             NaN             NaN
             NaN             NaN             NaN
             NaN             NaN             NaN
             NaN             NaN             NaN
             NaN             NaN             NaN
             NaN             NaN             NaN
             NaN             NaN             NaN
             NaN             NaN             NaN
             NaN             NaN             NaN
             NaN             NaN             NaN
             NaN             NaN             NaN
             NaN             NaN             NaN
             NaN             NaN             NaN
             NaN             NaN             NaN
             NaN             NaN             NaN
             NaN             NaN             NaN
             NaN             NaN             NaN
