N    C    H    Pd   O    Li             
   1.00000000000000     
    23.1481728079455458    1.1311951672203100    3.2154943242945802
     2.2216963676750390    7.0807215139513850    0.1228996278286520
     0.1346121401967395   -0.0966395646877469    7.0983617117063256
   N    C    H    Pd   O    Li
    12    20    40     4     4     1
Direct
  0.5361325627584602  0.1719689420120128  0.8176135242442950
  0.5243095390154993  0.8072952784426021  0.2191852688795102
  0.5237827807973739  0.1920247770196732  0.2141594742407444
  0.5217979265420284  0.8052386949124892  0.8285301610987479
  0.9715618215041165  0.5918323507153310  0.9044395736525188
  0.9366732806156544  0.2317065847902642  0.2932472433720635
  0.9502496036627253  0.5938246998762957  0.3051498267301428
  0.9652480093899345  0.2125466737809088  0.8911166216364154
  0.2914096387459297  0.0361437679037565  0.9637146944200222
  0.7530544537939398  1.0123445390127448  0.8287900153854835
  0.7428243647392355  0.5168366563620672  0.2180510947329357
  0.3094218273006844  0.6249256621129438  0.9144705781498277
  0.5352786492647327  0.2903146570838950  0.7070685071214609
  0.5243477747915458  0.6894879133370376  0.3295958154463365
  0.5261756376950661  0.3045604428780409  0.3243991368836640
  0.5245215556318306  0.6860064069495875  0.7169437985802972
  0.9682649847153738  0.7092870529582199  0.7910433750089230
  0.9396947112027010  0.1108576760323956  0.4031016372373079
  0.9494639406838341  0.7114206840403213  0.4153470889748751
  0.9637119244345664  0.0987672450305648  0.7803273386464197
  0.3313639484372237  0.8876998219840930  0.0702256859513168
  0.7192221796678283  0.9770669500698004  0.9952128269335587
  0.7762212360508859  0.4616841141717704  0.0356752919140271
  0.2530476027724943  0.6437038337219350  0.8771600514873239
  0.2244994237569688  0.1246957240054055  0.0195347778318862
  0.7293242714450757  0.0173733910916132  0.6490846285986815
  0.7755257865316825  0.5327618290117421  0.3736281803741214
  0.3651681184367091  0.5351047312710827  0.7756202836010735
  0.3194019135379284  0.1035866420934858  0.8106595340934984
  0.8041024549761392  0.0566579225969702  0.8311576442455577
  0.6808221645917512  0.5678513225324257  0.2506436613691138
  0.3160007238948264  0.7030656522018012  0.0936336059914164
  0.2022495174021092  0.0166476106598364  0.0446426390470093
  0.7035624165904814  0.1660631207686491  0.6187393132497825
  0.7679398953233294  0.9558080943993461  0.5328895995950124
  0.2054390102799157  0.2105632701452774  0.9022205131694743
  0.7594171340089455  0.4692888193190966  0.5019491721558522
  0.3923828758734959  0.6301999507053307  0.7481779976076032
  0.3943939387107516  0.3997298124575914  0.8273814223366825
  0.7669455742485020  0.6850522684432281  0.4052902055765856
  0.1314810816479150  0.4606198646647423  0.3769454818109010
  0.8533624410856159  0.0098431923672377  0.2756134510220206
  0.8581892801989451  0.6733246681943794  0.0360910838027567
  0.0984549789515711  0.1573123263038920  0.6302261273836997
  0.6197388410337773  0.3546156024042436  0.9519914011775674
  0.0402836811411123  0.0600809551559236  0.3402880517571187
  0.3363110269513042  0.1701984781203671  0.3761925956895026
  0.6398535453164113  0.9680265668619217  0.3812405092299591
  0.1205270924723608  0.2028291942032003  0.5803798330515867
  0.8278967590669668  0.7462666624710282  0.0800333986232951
  0.8210679848208601  0.0228377919699855  0.2612316411355724
  0.1275023657612408  0.5658124368125056  0.3691589911708748
  0.6613911384228676  0.6672636417278723  0.7354158645273184
  0.3703734736942770  0.1240999477370737  0.3752535477787740
  0.3784778234953101  0.8562427924503075 -0.0058738980179663
  0.6483527445324383  0.3786626863588480  0.9214538959029270
  0.2911072590150263  0.2105378146373470  0.7268783562969907
  0.8263605195621325  0.0958259250493642  0.6998774494857762
  0.8202583125976408  0.0566791521355357  0.9660539027905892
  0.3691927069652138  1.0444259977392105  0.7729000799590329
  0.6565369211351716  0.6111844065242107  0.3949317153357185
  0.3529953809902196  0.5957439491575824  0.1557167221948516
  0.2727556095618133  0.7311879123302566  0.1924010479360009
  0.6575941522408814  0.5670719731185377  0.1303196501769481
  0.2113415139065191  0.2224009217781944  0.1472108964882370
  0.6985839333606990  0.9335778257341277  0.6596453772515231
  0.8250987390046405  0.4582782424640931  0.3298619264063542
  0.3525711881701307  0.5041336715030058  0.6403047801334512
  0.3320175598754217  0.9370758481640791  0.2153315552462541
  0.6792768107217910  0.9399510217024051  0.9681437795480328
  0.8264893429243862  0.4136386600809565  0.0332257864618008
  0.2543979548061538  0.5891704336103818  0.7315082018774942
  0.5267892219585919  0.9939773045151492  1.0197926903636616
  0.9572651259442468  0.4052389884077925  0.0975905189273106
  0.5284836131545072  0.4914971969806193  0.5194773564519832
  0.9561587295086856  0.9068277742327432  0.5958806052504001
  0.0585732096838015  0.9282914200623966  0.2904273991085871
  0.7327628001162870  0.9857955165218145  0.1555379882547622
  0.7520243450859047  0.4632897102809353  0.8922743201033151
  0.2034134232165385  0.7154387861294728  0.9896913462933552
  0.1124394133986943  0.8162123588728185  0.0966645698825144
 
             NaN             NaN             NaN
             NaN             NaN             NaN
             NaN             NaN             NaN
             NaN             NaN             NaN
             NaN             NaN             NaN
             NaN             NaN             NaN
             NaN             NaN             NaN
             NaN             NaN             NaN
             NaN             NaN             NaN
             NaN             NaN             NaN
             NaN             NaN             NaN
             NaN             NaN             NaN
             NaN             NaN             NaN
             NaN             NaN             NaN
             NaN             NaN             NaN
             NaN             NaN             NaN
             NaN             NaN             NaN
             NaN             NaN             NaN
             NaN             NaN             NaN
             NaN             NaN             NaN
             NaN             NaN             NaN
             NaN             NaN             NaN
             NaN             NaN             NaN
             NaN             NaN             NaN
             NaN             NaN             NaN
             NaN             NaN             NaN
             NaN             NaN             NaN
             NaN             NaN             NaN
             NaN             NaN             NaN
             NaN             NaN             NaN
             NaN             NaN             NaN
             NaN             NaN             NaN
             NaN             NaN             NaN
             NaN             NaN             NaN
             NaN             NaN             NaN
             NaN             NaN             NaN
             NaN             NaN             NaN
             NaN             NaN             NaN
             NaN             NaN             NaN
             NaN             NaN             NaN
             NaN             NaN             NaN
             NaN             NaN             NaN
             NaN             NaN             NaN
             NaN             NaN             NaN
             NaN             NaN             NaN
             NaN             NaN             NaN
             NaN             NaN             NaN
             NaN             NaN             NaN
             NaN             NaN             NaN
             NaN             NaN             NaN
             NaN             NaN             NaN
             NaN             NaN             NaN
             NaN             NaN             NaN
             NaN             NaN             NaN
             NaN             NaN             NaN
             NaN             NaN             NaN
             NaN             NaN             NaN
             NaN             NaN             NaN
             NaN             NaN             NaN
             NaN             NaN             NaN
             NaN             NaN             NaN
             NaN             NaN             NaN
             NaN             NaN             NaN
             NaN             NaN             NaN
             NaN             NaN             NaN
             NaN             NaN             NaN
             NaN             NaN             NaN
             NaN             NaN             NaN
             NaN             NaN             NaN
             NaN             NaN             NaN
             NaN             NaN             NaN
             NaN             NaN             NaN
             NaN             NaN             NaN
             NaN             NaN             NaN
             NaN             NaN             NaN
             NaN             NaN             NaN
             NaN             NaN             NaN
             NaN             NaN             NaN
             NaN             NaN             NaN
             NaN             NaN             NaN
             NaN             NaN             NaN
