H    Li   C    N    O    Hg   Pt        
   1.00000000000000     
     7.4950872537958277   -1.0118928516193437    0.4423506611535582
    -0.3128733008507080    7.4437559391588302    0.2185252245083511
     0.0406071518036251    0.1945720029167115    7.1532841406094221
   H    Li   C    N    O    Hg   Pt
    14     1    10     6     2     1     1
Selective dynamics
Direct
  0.5951124809931025  0.9284771653060194  0.6392726244608692   T   T   T
  0.2153000323006263  0.0260794483516014  0.2859388823028740   T   T   T
  0.3418344147460938  0.2439910108046354  0.3233541260321497   T   T   T
  0.2026474059361946  0.1159260720955714  0.5132362900906130   T   T   T
  0.6402989193744918  0.1056845431101594  0.2255706199250468   T   T   T
  0.4818489785768504  0.9077639866497257  0.1851006582096527   T   T   T
  0.6514741573587424  0.8936294815694955  0.3477279411806343   T   T   T
  0.4031695037721047  0.5722737296605741  0.4892961709423916   T   T   T
  0.4571803659430694  0.3207541484012998  0.9869528643354616   T   T   T
  0.5792329698770090  0.5473407418242184  0.0091632368125186   T   T   T
  0.6628304883307660  0.4014760780295608  0.8480694380124257   T   T   T
  0.3330923060163328  0.7208133226925831  0.8928519532221963   T   T   T
  0.1869181411789254  0.5004110369310395  0.9026456419785125   T   T   T
  0.2262339286699864  0.6379077527417359  0.6912887363653243   T   T   T
  0.8468972584953676  0.5228051620454929  0.4372175256002865   T   T   T
  0.9448167257285082  0.8292425292228018  0.0867159694905163   T   T   T
  0.9684251674313641  0.2338597397830739  0.7037497502094738   T   T   T
  0.9199126284399991  0.8490013441064016  0.7052713668629803   T   T   T
  0.9721447971175935  0.2096738335691547  0.0863698601986808   T   T   T
  0.4788041791037426 -0.0012089770733825  0.6252680148064270   T   T   T
  0.2908787060416692  0.1049048988813643  0.3896555343455083   T   T   T
  0.5594543984054688  0.9787216249161638  0.2925404324173484   T   T   T
  0.4878800183088453  0.5005069247353303  0.5831012157629230   T   T   T
  0.5413201203503816  0.4409231260114117  0.9114313910305952   T   T   T
  0.2899135689119584  0.5978825423278640  0.8174172488813466   T   T   T
  0.9357514204821021  0.7084704551875870  0.2022150064650231   T   T   T
  0.9765708274941627  0.3588429634528970  0.5947236576295108   T   T   T
  0.8911079627798927  0.7364453247521083  0.5980035353361598   T   T   T
  0.9654543846558880  0.3199930007791476  0.1971122892117103   T   T   T
  0.4381720690660486  0.0185041421463626  0.4435123314709242   T   T   T
  0.4423348882613363  0.5118709350196819  0.7641450076436817   T   T   T
  0.3970221974390116  0.0480708636686869  0.7630617525252624   T   T   T
  0.6044866866760241  0.4233250932327312  0.5105032891472771   T   T   T
  0.1986171237816145  0.5622246238183232  0.2822769818110665   T   T   T
  0.9573467779547403  0.0304257312485636  0.8956060552826207   T   T   T
 
  0.00000000E+00  0.00000000E+00  0.00000000E+00
  0.00000000E+00  0.00000000E+00  0.00000000E+00
  0.00000000E+00  0.00000000E+00  0.00000000E+00
  0.00000000E+00  0.00000000E+00  0.00000000E+00
  0.00000000E+00  0.00000000E+00  0.00000000E+00
  0.00000000E+00  0.00000000E+00  0.00000000E+00
  0.00000000E+00  0.00000000E+00  0.00000000E+00
  0.00000000E+00  0.00000000E+00  0.00000000E+00
  0.00000000E+00  0.00000000E+00  0.00000000E+00
  0.00000000E+00  0.00000000E+00  0.00000000E+00
  0.00000000E+00  0.00000000E+00  0.00000000E+00
  0.00000000E+00  0.00000000E+00  0.00000000E+00
  0.00000000E+00  0.00000000E+00  0.00000000E+00
  0.00000000E+00  0.00000000E+00  0.00000000E+00
  0.00000000E+00  0.00000000E+00  0.00000000E+00
  0.00000000E+00  0.00000000E+00  0.00000000E+00
  0.00000000E+00  0.00000000E+00  0.00000000E+00
  0.00000000E+00  0.00000000E+00  0.00000000E+00
  0.00000000E+00  0.00000000E+00  0.00000000E+00
  0.00000000E+00  0.00000000E+00  0.00000000E+00
  0.00000000E+00  0.00000000E+00  0.00000000E+00
  0.00000000E+00  0.00000000E+00  0.00000000E+00
  0.00000000E+00  0.00000000E+00  0.00000000E+00
  0.00000000E+00  0.00000000E+00  0.00000000E+00
  0.00000000E+00  0.00000000E+00  0.00000000E+00
  0.00000000E+00  0.00000000E+00  0.00000000E+00
  0.00000000E+00  0.00000000E+00  0.00000000E+00
  0.00000000E+00  0.00000000E+00  0.00000000E+00
  0.00000000E+00  0.00000000E+00  0.00000000E+00
  0.00000000E+00  0.00000000E+00  0.00000000E+00
  0.00000000E+00  0.00000000E+00  0.00000000E+00
  0.00000000E+00  0.00000000E+00  0.00000000E+00
  0.00000000E+00  0.00000000E+00  0.00000000E+00
  0.00000000E+00  0.00000000E+00  0.00000000E+00
  0.00000000E+00  0.00000000E+00  0.00000000E+00
