N    C    H    Pt   Pb   O    Li        
   1.00000000000000     
    15.8953947569623182    0.1904151148751910   -1.0324743950656099
     0.2125967947363590    7.3206021410748061    0.0476910671566951
    -2.4870864188368720    0.0613429452292974    6.9609169725416198
   N    C    H    Pt   Pb   O    Li
    12    20    40     2     2     4     1
Direct
  0.4535206949084632  0.1893158533865729  0.7874563686558040
  0.5416371218837163  0.8082450652446239  0.2057659324610034
  0.5375245757305280  0.1920427981662915  0.2003091527233253
  0.4562989955412449  0.8185635087616464  0.7912392113452047
  0.9615362379322381  0.6889481882364500  0.7964186804688956
  0.0480670459810023  0.3070353151203739  0.2046012671935436
  0.0335619094253452  0.6843916412012505  0.2078172799994272
  0.9789195059300447  0.3001099847111064  0.8093831680978705
  0.2787255577333879  0.0041202973620287  0.2071903674513116
  0.7261370869466204 -0.0002271942039811  0.7979896778108648
  0.7776168387908077  0.4984496500537298  0.1998140648789753
  0.2232374999243806  0.5015126337131524  0.8068021802265161
  0.4302939602139165  0.2805308741217611  0.6424381675643436
  0.5454681287306896  0.6983392908977244  0.3253296277702881
  0.5446826474333240  0.3068198701736688  0.3158240607668837
  0.4331825931584772  0.7322994486966063  0.6462784124638065
  0.9631495453265217  0.7900896559875955  0.6723265172377346
  0.0711778335333357  0.1781085666761759  0.3124123461932982
  0.0498038380493456  0.7663235118224183  0.3556457461049741
  0.0045711011159431  0.1764049004782181  0.7382333909305198
  0.3582194590708307  1.0000774672523804  0.1841541739371104
  0.6454077511816221  0.9991218586905976  0.8194966628622722
  0.8581315312855148  0.4945387305317521  0.1791961110282869
  0.1427317698976946  0.5025154691366641  0.8233226241203593
  0.2745286813891409  0.0091059132577018  0.4024804885109249
  0.7299355032130332  0.9977971957190513  0.6022782201883082
  0.7732830516613275  0.5023265125229268  0.3949539609444926
  0.2283211945894093  0.4921176953669426  0.6125724392464252
  0.1935055252346410  0.0050592273079937  0.0463858027078755
  0.8134586885295719  0.0002510863590627  0.9556545572495326
  0.6896833433143037  0.4996268078150343  0.0429984712695340
  0.3098010985533010  0.5048254498457743  0.9680249232986365
  0.2404982968885842  0.8880015896396384  0.4224856645654774
  0.7664666480965983  0.1161433299397175  0.5848688297567727
  0.7683122062036137  0.8741753996184488  0.5887336680404778
  0.2343590887247489  0.1309474629697921  0.4129340944297304
  0.7350566615510626  0.3861821821356104  0.4107403166417856
  0.2641507833827217  0.6100217523221046  0.5921090067381924
  0.2687102967198993  0.3685634582363334  0.6079514375803069
  0.7348675239170529  0.6266342590986054  0.4064158249163580
  0.1747169811062499  0.8352366272770169  0.6369123438093161
  0.7987069739778681  0.1817086922411812  0.3288985400459822
  0.8140316931684451  0.8193649226299102  0.3450446148374219
  0.1654992093965862  0.1690430603057090  0.6456228275992433
  0.6914370926167820  0.3169566196548000  0.6440733068701713
  0.3198762211346682  0.6686964914371268  0.3442617551104004
  0.3186711766474372  0.3374452890008655  0.3442566207131302
  0.6824246281694440  0.6839736085194387  0.6432176116452251
  0.2036227464316470  0.1511515239130543  0.7456999479095059
  0.7764545460088911  0.8604167609977557  0.2531510351732353
  0.7624735175620447  0.1348784090965907  0.2449789427510382
  0.2169012624328166  0.8629477548413873  0.7223832773385517
  0.7161509499293098  0.6450226272165742  0.7409174010853498
  0.2804440031961385  0.3587137163977412  0.2455458619881499
  0.2845870050086926  0.6412109323955251  0.2463576191739600
  0.7222139899326051  0.3555559318197588  0.7415000417235467
  0.1497592513117365  0.1318566681094889  0.0132590164274136
  0.8510653604671993  0.8690254877974177  0.0077577220915750
  0.8493083688715584  0.1284868537054234  0.9859490037022663
  0.1791253152859099  0.8882536905097665  0.9463800993707100
  0.6495440965424002  0.6297332118998030  0.0063849340849453
  0.3493387693377135  0.3759332083304999  0.0142818300808616
  0.3451927079702006  0.6323084864337384  0.9960789236699502
  0.6541565341647976  0.3711319179432076  0.0136519968237038
  0.3441485639537727  0.0104141219265890  0.5143552097291271
  0.6599128607310656  0.0021008477351919  0.4880667110629792
  0.8429533439933479  0.4970831902233059  0.5107951031130955
  0.1591645911960919  0.4903048411597373  0.4972047013097235
  0.4205769460412929  0.9985166082964617  0.3211516031734325
  0.5836452223756445  0.9997557343739101  0.6816891703989177
  0.9197119573830623  0.4961177241340486  0.3172160674452197
  0.0819213588687764  0.4941547123408223  0.6846155961902975
  0.4984301825341079  0.0016018235082899 -0.0018173015222215
  1.0009423552642225  0.4968334404687861  1.0016864126214384
  0.5414490156524794  0.4964596999061212  0.5970939571756102
  0.9604580877488640  1.0163807680713108  0.4254988657633170
  0.3618593321694676  1.0026219084972596  1.0118813781647282
  0.6395859553866285  0.9969045680482940 -0.0098596586496514
  0.8635616614943802  0.4908516367884477  1.0068051015177735
  0.1358966016792643  0.5141267891808021 -0.0049833992410475
  0.0528494012738327  0.8908090949000590 -0.0111608741467597
 
             NaN             NaN             NaN
             NaN             NaN             NaN
             NaN             NaN             NaN
             NaN             NaN             NaN
             NaN             NaN             NaN
             NaN             NaN             NaN
             NaN             NaN             NaN
             NaN             NaN             NaN
             NaN             NaN             NaN
             NaN             NaN             NaN
             NaN             NaN             NaN
             NaN             NaN             NaN
             NaN             NaN             NaN
             NaN             NaN             NaN
             NaN             NaN             NaN
             NaN             NaN             NaN
             NaN             NaN             NaN
             NaN             NaN             NaN
             NaN             NaN             NaN
             NaN             NaN             NaN
             NaN             NaN             NaN
             NaN             NaN             NaN
             NaN             NaN             NaN
             NaN             NaN             NaN
             NaN             NaN             NaN
             NaN             NaN             NaN
             NaN             NaN             NaN
             NaN             NaN             NaN
             NaN             NaN             NaN
             NaN             NaN             NaN
             NaN             NaN             NaN
             NaN             NaN             NaN
             NaN             NaN             NaN
             NaN             NaN             NaN
             NaN             NaN             NaN
             NaN             NaN             NaN
             NaN             NaN             NaN
             NaN             NaN             NaN
             NaN             NaN             NaN
             NaN             NaN             NaN
             NaN             NaN             NaN
             NaN             NaN             NaN
             NaN             NaN             NaN
             NaN             NaN             NaN
             NaN             NaN             NaN
             NaN             NaN             NaN
             NaN             NaN             NaN
             NaN             NaN             NaN
             NaN             NaN             NaN
             NaN             NaN             NaN
             NaN             NaN             NaN
             NaN             NaN             NaN
             NaN             NaN             NaN
             NaN             NaN             NaN
             NaN             NaN             NaN
             NaN             NaN             NaN
             NaN             NaN             NaN
             NaN             NaN             NaN
             NaN             NaN             NaN
             NaN             NaN             NaN
             NaN             NaN             NaN
             NaN             NaN             NaN
             NaN             NaN             NaN
             NaN             NaN             NaN
             NaN             NaN             NaN
             NaN             NaN             NaN
             NaN             NaN             NaN
             NaN             NaN             NaN
             NaN             NaN             NaN
             NaN             NaN             NaN
             NaN             NaN             NaN
             NaN             NaN             NaN
             NaN             NaN             NaN
             NaN             NaN             NaN
             NaN             NaN             NaN
             NaN             NaN             NaN
             NaN             NaN             NaN
             NaN             NaN             NaN
             NaN             NaN             NaN
             NaN             NaN             NaN
             NaN             NaN             NaN
