N    C    H    Cr   Mn   O    Li
   1.00000000000000     
  17.3258527210427999  -0.2932978940694040   0.7352720803691090
  -0.1418245095148320   7.4490007221981998  -0.0403870789939893
  -1.8064923971436500  -0.0043656231774959   6.7342059567599701
N    C    H    Cr   Mn   O    Li
12  20  40  2  2  4  1  
Direct
  0.4741225742815574  0.1974061122936713  0.7872798485946653  
  0.5093514658520959  0.8166355894616328  0.1983045487264973  
  0.5103621357169195  0.2026813316206442  0.1959473882113888  
  0.4731012769507808  0.8107564993245224  0.7910600466324460  
  0.9931678050238184  0.7103426079154023  0.7885694040688698  
  0.0179096937583049  0.3292351036458877  0.1978589988081389  
  0.0305915192447124  0.7251293591127969  0.1915202004987119  
  0.9819123759411116  0.3163580307937823  0.7908719451296916  
  0.2811340554057870  0.9983795805440200  0.1904962875453220  
  0.7108306330272273  0.9941514527094950  0.8298515959727254  
  0.7866907986738237  0.5189617148211392  0.1576031717263563  
  0.2212116870506357  0.4727407470518192  0.8229750093340329  
  0.4797382753535236  0.3162653738765291  0.6782028185118054  
  0.5085318714061079  0.6979981870179244  0.3103890931225367  
  0.5090776124395884  0.3203221060248286  0.3084215089886002  
  0.4792312709903601  0.6937926762807818  0.6819845280562589  
  0.0000731765185384  0.8309053550084844  0.6808580255304063  
  0.0176381770247428  0.2090397680255421  0.3091718387475291  
  0.0265558090965289  0.8407638626263100  0.3067309881546302  
  0.9899985144962596  0.1982791331383413  0.6834704053222262  
  0.3554434495207910  0.9949971805530350  0.1713591558910247  
  0.6321958397045963  0.9932473096121640  0.8272867447995199  
  0.8650121099378165  0.5356183662364694  0.1599460799540047  
  0.1436908240155351  0.4694561454680358  0.8258844780033820  
  0.2674754328579284  0.9943535475431740  0.3891259746384333  
  0.7366037761014252  0.9688612695609850  0.6458447059145381  
  0.7607371460900848  0.5405456991458265  0.3417615439377933  
  0.2429404228966432  0.4201244469107678  0.6399215417426918  
  0.2121982750411589  0.0014185832807551  0.0348314417652275  
  0.7673374896182117  0.0187610729645128  0.9981867984413872  
  0.7311493988380472  0.4848388156642668  0.9895581897186210  
  0.2785995606723448  0.5365352124403013  0.9739641686372252  
  0.2337924080685808  0.8716490755680080  0.4098074520891520  
  0.7747431739695401  0.0839316300926785  0.6219909880713627  
  0.7705694800205795  0.8466260730093709  0.6536190500854869  
  0.2323601556104405  0.1095610622246475  0.4091242606082667  
  0.7244637057768661  0.4229930997749659  0.3661062925743406  
  0.2670688985222014  0.5384808816493222  0.5772864436287278  
  0.2874922919859888  0.3173636121319787  0.6710812182362335  
  0.7253987594179054  0.6607633539259498  0.3337021501596568  
  0.1671693450520305  0.7688430536396181  0.6175917493253938  
  0.8634768731032745  0.2134570196107122  0.4313538342494866  
  0.8751076271576000  0.8874607212060051  0.4057067460767523  
  0.1206684353484317  0.0674082650205944  0.5455651558618306  
  0.6383326996154834  0.2966623145238768  0.5419649052832078  
  0.3540403009233820  0.6626965979569182  0.4473687861694329  
  0.3557100705294233  0.3319463817686613  0.3775809667853023  
  0.6262903095374032  0.6455935240266363  0.5786323342981938  
  0.1140936605091077  0.0634696612775174  0.6588434055930242  
  0.8337951700400331  0.8677875805120906  0.3464586177944024  
  0.8234835666885678  0.2139929172750042  0.3631531424161867  
  0.1957151118946946  0.8005068593454259  0.7096206776808384  
  0.6485182043100672  0.6305236505480415  0.6832241654825357  
  0.3261312563322939  0.3553692945416085  0.2856924345390034  
  0.3363622369746473  0.6873281196650265  0.3434918926407514  
  0.6736846939097343  0.3066792070687627  0.6254988634852514  
  0.2300036925717881  0.0375404986168344  0.8982345807197010  
  0.8289294030958521  0.0230046940936526  0.9888348196482316  
  0.7476331835932282  0.0387270894496189  0.1333655931335242  
  0.1733341648115862  0.1034407183056966  0.0729156152566935  
  0.6697342280413955  0.4676340190823766  0.9992345951499140  
  0.2608296795352689  0.5847844072063332  0.1034997861734887  
  0.3392566898258426  0.5396693563834702  0.9570510068804888  
  0.7520481706486614  0.4687869569609582  0.8553963461755930  
  0.3234424220702846  0.0004146903872927  0.4985316621329411  
  0.6850494631001661  0.9580688918215550  0.5228439063450411  
  0.8122710749557374  0.5545312777359466  0.4641525976574768  
  0.1901120482843421  0.3686498929035985  0.5355746957327056  
  0.4000693987969268  0.9862961560476050  0.3081065500058237  
  0.5926724431461269  0.9756794140705320  0.6828669600508050  
  0.9046295708223802  0.5576914411951943  0.3039229049726564  
  0.1026938776505336  0.4184642660922768  0.6939732144560667  
  0.4894078655702503  0.0071348807090587  0.9924892581751150  
  0.0031325839388371  0.5159707771740848  0.9897849286715580  
  0.4955627402438161  0.5073348859535856  0.4963639709571340  
  0.0173791017791561  0.0199645140863369  0.5036091609709289  
  0.3759465903214884  0.0013179723096404  0.0037654037629081  
  0.6072861312085825  0.0126862921069139  0.9835403885501340  
  0.8894246042709462  0.5242631511572990  0.0012319980933362  
  0.1197412072475649  0.5259762391985837  0.9771205397735160  
  0.1133468314744038  0.8038112444446340  0.0110555350687753  
