H    Li   C    N    O    Ni   Mn        
   1.00000000000000     
     7.8559589732204893   -1.3275424159712537    0.5867267584968702
    -0.7618534100462614    6.7164951585572439    0.2467420492047707
     0.2086072334417676    0.2263399110626017    6.5482067572988916
   H    Li   C    N    O    Ni   Mn
    14     1    10     6     2     1     1
Selective dynamics
Direct
  0.5594415736372192  0.0393362334562546  0.6938051665261595   T   T   T
  0.2212881660971405 -0.0355219577661127  0.2670100389672405   T   T   T
  0.3401837078998821  0.2303933716876836  0.2264282736541375   T   T   T
  0.1867617447716275  0.1340105839585727  0.4524790310998147   T   T   T
  0.6173753073685465  0.1713118993552799  0.1881351820879555   T   T   T
  0.5276302633957419  0.8962684432857244  0.2291109050528400   T   T   T
  0.6829074182647900  0.0322922111420520  0.3888892266801788   T   T   T
  0.2812376174592606  0.5621545955243025  0.5625861802263752   T   T   T
  0.5833299245572807  0.4613417753205382  0.0080922272615689   T   T   T
  0.7011430078389093  0.6864829397801174  0.8466003906343660   T   T   T
  0.6647553431780518  0.4404717454044293  0.7484589781116687   T   T   T
  0.3624382481883838  0.7525619534718441  0.9773854225910550   T   T   T
  0.3110541592668950  0.4914881388888981  0.0871374495966378   T   T   T
  0.1879186283978998  0.5594900684509964  0.8956459588539635   T   T   T
  0.7754205899839516  0.6818505996879292  0.4122919529310259   T   T   T
  0.9510538415230398  0.7434323011088243  0.0401542557830722   T   T   T
  0.9322687575875211  0.0789043006700752  0.7007938536661938   T   T   T
  0.0350539280315540  0.7511035596105707  0.6593938893807338   T   T   T
  0.0302153113064125  0.1398219659087686  0.0495496714746891   T   T   T
  0.4341217871176124  0.0542675465418661  0.6468236146351913   T   T   T
  0.2850998887821635  0.0996303787856504  0.3441730920684333   T   T   T
  0.5725303030337839  0.0379235265546541  0.3048452546401328   T   T   T
  0.4146694474893311  0.5589141963495319  0.5893801944436362   T   T   T
  0.6063345654472395  0.5332846456487054  0.8492398904074744   T   T   T
  0.3183692642079775  0.5900387030820291  0.9453170550808908   T   T   T
 -0.0942211605936179  0.5999782237838519  0.1716289631421063   T   T   T
  0.8862608136396630  0.1938641401486017  0.5855657418989291   T   T   T
 -0.0117672380008332  0.6178602484316965  0.5503234197060450   T   T   T
  0.0014819484600514  0.2455763140879107  0.1771984817567044   T   T   T
  0.4273779919422128  0.0616406843666815  0.4451218117691159   T   T   T
  0.4412539558530296  0.5484672888248066  0.7871801078754702   T   T   T
  0.3155589242036465  0.0695860870944398  0.7839985238095791   T   T   T
  0.5303449362767334  0.5672830311406234  0.4413890558498228   T   T   T
  0.9391721772006786  0.4068723971313605  0.3719244623995329   T   T   T
  0.0632098561862172 -0.0443751409191611  0.8482602759372626   T   T   T
 
  0.00000000E+00  0.00000000E+00  0.00000000E+00
  0.00000000E+00  0.00000000E+00  0.00000000E+00
  0.00000000E+00  0.00000000E+00  0.00000000E+00
  0.00000000E+00  0.00000000E+00  0.00000000E+00
  0.00000000E+00  0.00000000E+00  0.00000000E+00
  0.00000000E+00  0.00000000E+00  0.00000000E+00
  0.00000000E+00  0.00000000E+00  0.00000000E+00
  0.00000000E+00  0.00000000E+00  0.00000000E+00
  0.00000000E+00  0.00000000E+00  0.00000000E+00
  0.00000000E+00  0.00000000E+00  0.00000000E+00
  0.00000000E+00  0.00000000E+00  0.00000000E+00
  0.00000000E+00  0.00000000E+00  0.00000000E+00
  0.00000000E+00  0.00000000E+00  0.00000000E+00
  0.00000000E+00  0.00000000E+00  0.00000000E+00
  0.00000000E+00  0.00000000E+00  0.00000000E+00
  0.00000000E+00  0.00000000E+00  0.00000000E+00
  0.00000000E+00  0.00000000E+00  0.00000000E+00
  0.00000000E+00  0.00000000E+00  0.00000000E+00
  0.00000000E+00  0.00000000E+00  0.00000000E+00
  0.00000000E+00  0.00000000E+00  0.00000000E+00
  0.00000000E+00  0.00000000E+00  0.00000000E+00
  0.00000000E+00  0.00000000E+00  0.00000000E+00
  0.00000000E+00  0.00000000E+00  0.00000000E+00
  0.00000000E+00  0.00000000E+00  0.00000000E+00
  0.00000000E+00  0.00000000E+00  0.00000000E+00
  0.00000000E+00  0.00000000E+00  0.00000000E+00
  0.00000000E+00  0.00000000E+00  0.00000000E+00
  0.00000000E+00  0.00000000E+00  0.00000000E+00
  0.00000000E+00  0.00000000E+00  0.00000000E+00
  0.00000000E+00  0.00000000E+00  0.00000000E+00
  0.00000000E+00  0.00000000E+00  0.00000000E+00
  0.00000000E+00  0.00000000E+00  0.00000000E+00
  0.00000000E+00  0.00000000E+00  0.00000000E+00
  0.00000000E+00  0.00000000E+00  0.00000000E+00
  0.00000000E+00  0.00000000E+00  0.00000000E+00
