N    C    H    Hg   Cd   O    Li        
   1.00000000000000     
    17.3134713312204873   -0.1130396379711970   -0.2483646840617210
     0.0647691329186449    8.3990136908909534    0.0749593802917808
    -1.3735261089196267    0.3758798081042868    7.6245617305673878
   N    C    H    Hg   Cd   O    Li
    12    20    40     2     2     4     1
Direct
  0.5584360200077689  0.2249286162914724  0.8476087374004103
  0.5499662393861011  0.8403602305274785  0.2768930929566488
  0.4445077060151070  0.2790657611937417  0.2123750706124060
  0.4623794364047260  0.8335701605663137  0.7645476176347857
  0.9867196517603881  0.6940268820930022  0.7589173565529123
  0.0122778082984112  0.3246742212054381  0.1500429263274010
  0.0264117785804246  0.7809512151315462  0.1609228913774689
  0.9299770069978207  0.3168671080887617  0.6811769254599260
  0.2821312014567117  0.9441714059717555  0.2497513922183646
  0.7326825209622885 -0.0069627648525501  0.7607325845841262
  0.7570729031497232  0.5163436803586884  0.1908913918095423
  0.2536687701038169  0.4774068361246390  0.8507775246084271
  0.5530328746118017  0.3352693437925880  0.7463448940058168
  0.5524077167971622  0.7248706386203946  0.3702705041951320
  0.4555055719212282  0.3693992242142052  0.3249022583415569
  0.4619189607132145  0.7150492108615472  0.6900682525560599
  0.9932535096643011  0.8092146284387877  0.6710129494764829
  0.0224551176925015  0.2300307425689753  0.2700976868933053
 -0.0102490492372979  0.8543821845668913  0.2424335279491302
  0.9285124829998901  0.2087932883807908  0.5907998649443569
  0.3547131271759939  0.9749727405535946  0.1920750785725523
  0.6644233564231373 -0.0523143186265108  0.8149400196539202
  0.8294582667716628  0.4916516906339320  0.1498370990777495
  0.1759980826324239  0.4656890915509124  0.8606870711596091
  0.2760644602430560  0.9905625777721365  0.4285702897612813
  0.7284983018867268  0.0562112104572483  0.5796528603356144
  0.7497232630286177  0.5316634652960247  0.3746987441163148
  0.2871654371941453  0.3686322763844923  0.7406878786411393
  0.2233355765239119  0.8713613218069055  0.1552748845864864
  0.8048425977307794  0.9729734712899980  0.8670981244575471
  0.6903447197120521  0.5329812475163601  0.0679610486607244
  0.3014900165433731  0.5832164172435215  0.9432270505110329
  0.2479409956384976  0.8928829815774566  0.4913321692411494
  0.7736075206065013  0.1475269509539524  0.5797888535608571
  0.7377242942569693  0.9626174718756172  0.4921232684739237
  0.2404551851337458  0.0999483183554647  0.4182864628679454
  0.7168935320757380  0.4317119884309113  0.4213667564150169
  0.3249389247349529  0.4360246692353545  0.6651367381553611
  0.3219407315193604  0.2736729715433643  0.8234215812737191
  0.7179532245623963  0.6431473265302748  0.3828511572016280
  0.1618911797093090  0.7872619674596647  0.6717251545648237
  0.7607871951197721  0.2072909752698915  0.2410479288334664
  0.8360556192997628  0.8149166975819263  0.3497524892120875
  0.1226193286838155  0.1374697622171274  0.5860578611177026
  0.7033189877625342  0.3421845666018191  0.7430254857101145
  0.3156200657420467  0.6312557841456211  0.4324587691713787
  0.2891865840903632  0.3348678163771897  0.2301826836220011
  0.7000912939129721  0.6851333589863269  0.6524809384691147
  0.1320730784611336  0.1025232715132850  0.6791460248136013
  0.8029077462676708  0.8533854993293732  0.2842826965763365
  0.7420098955785187  0.1393503620370714  0.1902617185170694
  0.1951908881533101  0.8106923518053458  0.7426381078477575
  0.7367823953256268  0.6711385336024596  0.7206634740931370
  0.2456737340586035  0.3264036856617822  0.2258789954493411
  0.2870578085521163  0.6044582105719424  0.3543693281155496
  0.7461689533099345  0.3620044594979292  0.7561864823038861
  0.1802784283841339  0.1218374300930297  1.0092476692351864
  0.8543121486013541  0.9586287690469190 -0.2004293363227238
  0.8047821255730656  0.9421075542104702  1.0051284471029405
  0.2114176016569322  0.1066416526990259 -0.0521242913118905
  0.6356136792756581  0.5465790637883179  1.1134634241953947
  0.3624304102492730  0.5852712329916933  0.9295406473626718
  0.2765244887153973  0.6629194166241131  0.0245780466914161
  0.6947821478680538  0.5361925308078204 -0.0689137728269296
  0.3349250072469629  1.0103463799673180  0.5047180404822247
  0.6710097025016966  0.1132748508846678  0.5315928907679655
  0.8081426429033812  0.5357684263951359  0.4576683603158999
  0.2398712448716180  0.3154620403797577  0.6481190682153799
  0.4016325293671679  1.0105147217596571  0.2988221922204116
  0.6128523735545677 -0.0454398011792409  0.7070154078644201
  0.8760979446921827  0.4689452104251915  0.2660335021114788
  0.1444429799371755  0.3787220338816577  0.7737217793032989
  0.5154045129561012  1.0047636715050494  0.0125859987083624
  0.9750112504882462  0.4866445339932036  0.9259702911955154
  0.5057234694605581  0.5256846624406252  0.5353675635047284
  0.9733215407678339  0.0165068893123587  0.4485392422032699
  0.3628476320842717 -0.0419932368490980  0.0403881578364853
  0.6612661093049403  0.8988940362853587  0.9677533959273064
  0.8407559788544428  0.4910280988743438  0.9937732726584405
  0.1430954185001170  0.5477242435087046  0.9587708894157713
  0.1260815148991848  0.7386804943259445  0.0651502418557209
 
             NaN             NaN             NaN
             NaN             NaN             NaN
             NaN             NaN             NaN
             NaN             NaN             NaN
             NaN             NaN             NaN
             NaN             NaN             NaN
             NaN             NaN             NaN
             NaN             NaN             NaN
             NaN             NaN             NaN
             NaN             NaN             NaN
             NaN             NaN             NaN
             NaN             NaN             NaN
             NaN             NaN             NaN
             NaN             NaN             NaN
             NaN             NaN             NaN
             NaN             NaN             NaN
             NaN             NaN             NaN
             NaN             NaN             NaN
             NaN             NaN             NaN
             NaN             NaN             NaN
             NaN             NaN             NaN
             NaN             NaN             NaN
             NaN             NaN             NaN
             NaN             NaN             NaN
             NaN             NaN             NaN
             NaN             NaN             NaN
             NaN             NaN             NaN
             NaN             NaN             NaN
             NaN             NaN             NaN
             NaN             NaN             NaN
             NaN             NaN             NaN
             NaN             NaN             NaN
             NaN             NaN             NaN
             NaN             NaN             NaN
             NaN             NaN             NaN
             NaN             NaN             NaN
             NaN             NaN             NaN
             NaN             NaN             NaN
             NaN             NaN             NaN
             NaN             NaN             NaN
             NaN             NaN             NaN
             NaN             NaN             NaN
             NaN             NaN             NaN
             NaN             NaN             NaN
             NaN             NaN             NaN
             NaN             NaN             NaN
             NaN             NaN             NaN
             NaN             NaN             NaN
             NaN             NaN             NaN
             NaN             NaN             NaN
             NaN             NaN             NaN
             NaN             NaN             NaN
             NaN             NaN             NaN
             NaN             NaN             NaN
             NaN             NaN             NaN
             NaN             NaN             NaN
             NaN             NaN             NaN
             NaN             NaN             NaN
             NaN             NaN             NaN
             NaN             NaN             NaN
             NaN             NaN             NaN
             NaN             NaN             NaN
             NaN             NaN             NaN
             NaN             NaN             NaN
             NaN             NaN             NaN
             NaN             NaN             NaN
             NaN             NaN             NaN
             NaN             NaN             NaN
             NaN             NaN             NaN
             NaN             NaN             NaN
             NaN             NaN             NaN
             NaN             NaN             NaN
             NaN             NaN             NaN
             NaN             NaN             NaN
             NaN             NaN             NaN
             NaN             NaN             NaN
             NaN             NaN             NaN
             NaN             NaN             NaN
             NaN             NaN             NaN
             NaN             NaN             NaN
             NaN             NaN             NaN
