H    Li   C    N    O    Pt   Zn        
   1.00000000000000     
     7.0606926628643443   -0.9641488563732478    0.5645958378634895
    -0.2208157055511989    7.4918822318688960    0.0708246730088946
     0.1198094234015311    0.0380203024613085    7.1588849531419996
   H    Li   C    N    O    Pt   Zn
    14     1    10     6     2     1     1
Selective dynamics
Direct
  0.5963656761260281  0.9616299161114122  0.6690409012135818   T   T   T
  0.2158313207080712 -0.0464092585375516  0.3177253972010395   T   T   T
  0.3560966230859584  0.1544946000208279  0.2158914437750213   T   T   T
  0.2312956952776057  0.1592639980110187  0.4444191542217548   T   T   T
  0.6461710317207040 -0.0103508850324466  0.1889151240762374   T   T   T
  0.5006388111043384  0.7911190376704905  0.2951841058431906   T   T   T
  0.7078654024474950  0.8936608674363268  0.3988448226341078   T   T   T
  0.3008295363177658  0.6230978077677675  0.5651565786319219   T   T   T
  0.5177031976071654  0.3313642014640204  0.9297260481210102   T   T   T
  0.6761665123484536  0.5439101655836412  0.9362901061585096   T   T   T
  0.6837963513155552  0.4108661080272329  0.7328814763935387   T   T   T
  0.4368128348141245  0.7491147492971113  0.9718425319774783   T   T   T
  0.2708603689534670  0.5451108346049599  0.0238062155714901   T   T   T
  0.2321780267904314  0.6985871396010986  0.8445843015991088   T   T   T
  0.6412813729287585  0.3098034793395333  0.3695329429988645   T   T   T
  0.9541915825391937  0.8361318022722950  0.0561756558381154   T   T   T
  0.9483245695235482  0.2240011563835622  0.6589088590222656   T   T   T
  0.9622869081749669  0.8314446066208278  0.6571045786418391   T   T   T
  0.9592685344216144  0.2293819731807371  0.0576459315397470   T   T   T
  0.4748038562342848  0.0237265273118149  0.6284779125342493   T   T   T
  0.3093875331763740  0.0785258406256599  0.3494886280287211   T   T   T
  0.5885001423783115  0.9208882165310236  0.3238692221052422   T   T   T
  0.4115370689369838  0.5426694127214832  0.5943347832199931   T   T   T
  0.5899006929031995  0.4522263343867862  0.8472146755791755   T   T   T
  0.3412093871303298  0.6403831942827061  0.9106264793986162   T   T   T
 -0.0275218981861634  0.7220251740506471  0.1652714026735023   T   T   T
 -0.0302278063319449  0.3437046925546603  0.5453710385195760   T   T   T
  0.9487651188255709  0.7137687804419875  0.5485128965671241   T   T   T
  0.9379863307683061  0.3419807727432296  0.1692712180669647   T   T   T
  0.4750237839773378  0.0348610620256756  0.4358505666589879   T   T   T
  0.4495473920523144  0.5464875104131683  0.7735239562790790   T   T   T
  0.3619237622596692  0.0798655503815888  0.7449911904308953   T   T   T
  0.4879310935065002  0.4593904989036891  0.4655591122587003   T   T   T
 -0.0386882986552867  0.5319604424219617  0.3561562608450022   T   T   T
 -0.0207125151810037  0.0343576903810620  0.8543694813753488   T   T   T
 
  0.00000000E+00  0.00000000E+00  0.00000000E+00
  0.00000000E+00  0.00000000E+00  0.00000000E+00
  0.00000000E+00  0.00000000E+00  0.00000000E+00
  0.00000000E+00  0.00000000E+00  0.00000000E+00
  0.00000000E+00  0.00000000E+00  0.00000000E+00
  0.00000000E+00  0.00000000E+00  0.00000000E+00
  0.00000000E+00  0.00000000E+00  0.00000000E+00
  0.00000000E+00  0.00000000E+00  0.00000000E+00
  0.00000000E+00  0.00000000E+00  0.00000000E+00
  0.00000000E+00  0.00000000E+00  0.00000000E+00
  0.00000000E+00  0.00000000E+00  0.00000000E+00
  0.00000000E+00  0.00000000E+00  0.00000000E+00
  0.00000000E+00  0.00000000E+00  0.00000000E+00
  0.00000000E+00  0.00000000E+00  0.00000000E+00
  0.00000000E+00  0.00000000E+00  0.00000000E+00
  0.00000000E+00  0.00000000E+00  0.00000000E+00
  0.00000000E+00  0.00000000E+00  0.00000000E+00
  0.00000000E+00  0.00000000E+00  0.00000000E+00
  0.00000000E+00  0.00000000E+00  0.00000000E+00
  0.00000000E+00  0.00000000E+00  0.00000000E+00
  0.00000000E+00  0.00000000E+00  0.00000000E+00
  0.00000000E+00  0.00000000E+00  0.00000000E+00
  0.00000000E+00  0.00000000E+00  0.00000000E+00
  0.00000000E+00  0.00000000E+00  0.00000000E+00
  0.00000000E+00  0.00000000E+00  0.00000000E+00
  0.00000000E+00  0.00000000E+00  0.00000000E+00
  0.00000000E+00  0.00000000E+00  0.00000000E+00
  0.00000000E+00  0.00000000E+00  0.00000000E+00
  0.00000000E+00  0.00000000E+00  0.00000000E+00
  0.00000000E+00  0.00000000E+00  0.00000000E+00
  0.00000000E+00  0.00000000E+00  0.00000000E+00
  0.00000000E+00  0.00000000E+00  0.00000000E+00
  0.00000000E+00  0.00000000E+00  0.00000000E+00
  0.00000000E+00  0.00000000E+00  0.00000000E+00
  0.00000000E+00  0.00000000E+00  0.00000000E+00
