N    C    H    Ag   Be   O    Li        
   1.00000000000000     
    19.9366560426255646   -0.0954989746630505    0.9427883017160830
    -0.0980018327217312    9.1630932962686416    0.9431702267898540
    -1.1251788632246169    0.6426621047115774    6.8130781861873775
   N    C    H    Ag   Be   O    Li
    12    20    40     2     2     4     1
Direct
  0.3670568169803646  0.2560401564762256  0.5544420268171586
  0.3598190729380302  0.5855848003978880  0.1213335941517441
  0.5818931701257839  0.5668412484712049  0.8484248141196093
  0.7723160549320534  0.8421224648790924  0.8711050428380595
 -0.0505907245568022  0.5053737493765441  0.7249258345742571
  0.8834233957426871 -0.0363013176387292  0.1997229036933725
  0.1304310475331510  0.8044791903746472  0.3644492610790997
  1.0781771051303659  0.1582699795705791  0.8249179639381659
  0.2624204395491684  0.0364929997352971  0.3463908144601258
  0.7011242941637107  1.0741139403255990  0.6843185158346512
  0.8173837721493412  0.5368534162968934  0.3117420426109823
  0.2043349056761469  0.5022897888805089  0.5379938417301887
  0.4084117529799181  0.3372986340386417  0.6029590501908624
  0.3892985371095489  0.5877966199285813  0.2791086481999731
  0.5324837329748613  0.5241324133579927  0.7694514936822949
  0.7190472451835406  0.8528445980589487  0.9445903646353200
 -0.0759693610299037  0.6237863598218141  0.6905965057714888
  0.9339218606811823 -0.0410068651056568  0.3086564050320474
  0.1062879722986249  0.8386136862835180  0.4959375697286909
  1.0754107912192594  0.0508072027694769  0.7579596387839218
  0.2983281204684503  0.1026851220818234  0.1814586168494965
  0.6808570968015535  1.0034567176737974  0.8779282427997799
  0.8780679579153780  0.5970627644849575  0.2565420997657283
  0.1518046778666824  0.5187978524310501  0.6504523580323844
  0.2974418685173955 -0.0899362496982127  0.4849677466125045
  0.6553779941382065  0.0348028322324995  0.5192771234366457
  0.8169845452085330  0.1975031905499801  0.7198375326326403
  0.1936941774286374  0.4358673153539251  0.3616786438917418
  0.2048458430929255  0.0954640710540633  0.3723907543356320
  0.7669214937422664  1.0878653132960014  0.6524553195945240
  0.7656372337076145  0.4792563097465290  0.3476848502771291
  0.2666866884900196  0.5362675715589470  0.6066622809613316
  0.2579116868215603  0.8483889196287623  0.5614452149455560
  0.6722859747224056  0.0929909682625608  0.3807814942272779
  0.6536477587889510  0.9150469345163563  0.5202143298059291
  0.3348087094003994 -0.0482983664425478  0.5894913449150080
  0.7921836254151621  0.2855172504554392  0.7731559194591185
  0.1688229788101658  0.5119296149590140  0.2323281443500919
  0.2429066815137836  0.4027714228635642  0.3282243322903214
  0.8611435252553837  0.1556801373934901  0.8267891361562287
  0.0749253508549059  0.7732234966167560  0.8693674027723804
  0.8087518024730231  0.1877504559803457  0.2293047060359329
  0.8399796677564023  0.9603607834357121  0.1109912339782566
  0.0761924023918486  0.3990165871273235  0.0858100099734739
  0.7015129792925170  0.3995875479298207  0.9859186978951825
  0.2991029524526192  0.7952316322692692  0.0983226008971596
  0.4305888871712161  0.2866675280882778  0.0625087076506561
  0.7177247087112648  0.6616536199993872  0.5658557285907814
  0.0686368810099053  0.4763328588640117  0.0259375328338984
  0.7596904806804546  0.8419445347898776  0.2835143064183481
  0.7873568904035437  0.2369018177704060  0.2725493586668352
  0.2046067169330298  0.9445671925566751  0.8885666546404425
  0.7696782576529105  0.8477546439519356  0.3903780188991408
  0.4249393040729077  0.2798751533347370 -0.0445008226140112
  0.2821495372340351  0.8679728205581168  0.0494892066208388
  0.7061482649139211  0.3167971664887563  1.0079381670294332
  0.1966531275084872  0.0173500887901796 -0.0830867939065842
  0.7151488473049090  1.0057539002863674  1.1504044047226287
  0.7769155077874949  1.0604634000203956  0.5111083446441524
  0.1922942899289309  0.0357669913767927  0.5213180662114338
  0.8069931271233254  0.7559411378345749 -0.0831532372032781
  0.3083849780258195  0.5229844785762211  0.5240752598060702
  0.2707632676529506  0.5732734032741181 -0.2526311518956493
  0.7081900359250940  0.6144972810371353  0.4957688856064057
  0.3219676197498437 -0.1629711690235788  0.4058049817165694
  0.6045154679035043  0.0754840247264173  0.5259260129569491
  0.8390407010510432  0.2486952521498652  0.5847526781756729
  0.1632908346210768  0.3356286313811125  0.3887792997038790
  0.3522913970543711  0.0693593555689083  0.2062210750541473
  0.6254168667954431  0.9986991422346143  0.8596953933394358
  0.9200231976985446  0.5747572065379075  0.3754314067389423
  0.1024621840621534  0.4794806631819690  0.5915927617867091
  0.3844880702723973  0.6388180512732680  0.8254285310255004
  1.0151416193904914  0.3349772941564715  0.7902106662151329
  0.4607805028031785  0.4721048146571221  0.6507762590127449
  1.0732829964907646  0.8773304997844995  0.6999262321002441
  0.2727626755639591  0.1846295157391138  1.0340716125328635
  0.7036177126173769  1.0807601076616686  0.0295650047746819
  0.8821510293785566  0.6700861367524792  1.0921185887080080
  0.1607776059865071  0.5721386406989989 -0.1993777516117613
  0.1455556180231625  0.7940108915931330  0.0916265514584783
 
             NaN             NaN             NaN
             NaN             NaN             NaN
             NaN             NaN             NaN
             NaN             NaN             NaN
             NaN             NaN             NaN
             NaN             NaN             NaN
             NaN             NaN             NaN
             NaN             NaN             NaN
             NaN             NaN             NaN
             NaN             NaN             NaN
             NaN             NaN             NaN
             NaN             NaN             NaN
             NaN             NaN             NaN
             NaN             NaN             NaN
             NaN             NaN             NaN
             NaN             NaN             NaN
             NaN             NaN             NaN
             NaN             NaN             NaN
             NaN             NaN             NaN
             NaN             NaN             NaN
             NaN             NaN             NaN
             NaN             NaN             NaN
             NaN             NaN             NaN
             NaN             NaN             NaN
             NaN             NaN             NaN
             NaN             NaN             NaN
             NaN             NaN             NaN
             NaN             NaN             NaN
             NaN             NaN             NaN
             NaN             NaN             NaN
             NaN             NaN             NaN
             NaN             NaN             NaN
             NaN             NaN             NaN
             NaN             NaN             NaN
             NaN             NaN             NaN
             NaN             NaN             NaN
             NaN             NaN             NaN
             NaN             NaN             NaN
             NaN             NaN             NaN
             NaN             NaN             NaN
             NaN             NaN             NaN
             NaN             NaN             NaN
             NaN             NaN             NaN
             NaN             NaN             NaN
             NaN             NaN             NaN
             NaN             NaN             NaN
             NaN             NaN             NaN
             NaN             NaN             NaN
             NaN             NaN             NaN
             NaN             NaN             NaN
             NaN             NaN             NaN
             NaN             NaN             NaN
             NaN             NaN             NaN
             NaN             NaN             NaN
             NaN             NaN             NaN
             NaN             NaN             NaN
             NaN             NaN             NaN
             NaN             NaN             NaN
             NaN             NaN             NaN
             NaN             NaN             NaN
             NaN             NaN             NaN
             NaN             NaN             NaN
             NaN             NaN             NaN
             NaN             NaN             NaN
             NaN             NaN             NaN
             NaN             NaN             NaN
             NaN             NaN             NaN
             NaN             NaN             NaN
             NaN             NaN             NaN
             NaN             NaN             NaN
             NaN             NaN             NaN
             NaN             NaN             NaN
             NaN             NaN             NaN
             NaN             NaN             NaN
             NaN             NaN             NaN
             NaN             NaN             NaN
             NaN             NaN             NaN
             NaN             NaN             NaN
             NaN             NaN             NaN
             NaN             NaN             NaN
             NaN             NaN             NaN
