N    C    H    Mn   Ni   O    Li        
   1.00000000000000     
    17.6880224401486252   -0.1804817968532910    0.3126250608819210
    -0.2586197256101399    7.6246991824688255    0.0221155328601424
    -1.3470046768394268    0.0693365461842451    7.0576385513939419
   N    C    H    Mn   Ni   O    Li
    12    20    40     2     2     4     1
Direct
  0.4798073149405305  0.1958441424125060  0.7701715552878321
  0.5138323434579808  0.7850739316299015  0.2097367011961491
  0.5151463549584807  0.2101156381087914  0.2075248017075098
  0.4814972080225461  0.7735845150345494  0.7707612158861500
  0.9852478082587297  0.7393046064657078  0.7507604679607052
  0.0096799603984888  0.3237745858225848  0.1791824354377367
  0.0289330356005199  0.7641112163603748  0.1773684317367701
  0.9733590503974374  0.3103289424596164  0.7325467237102189
  0.2837933319684443  0.9956665876614090  0.2294952549521901
  0.7181827628175222  0.0070478940372886  0.8009733186769157
  0.7718645221695861  0.5108468028474502  0.1527705358418070
  0.2222340666558470  0.4792687716463627  0.8120540667528588
  0.4863536376624919  0.3122695389126522  0.6639488879191675
  0.5094201713859865  0.6689581071695706  0.3175632899040778
  0.5105066583313854  0.3213372678675939  0.3157383104713867
  0.4871033210326290  0.6613492801373411  0.6647178303381626
  0.9907166196971670  0.8524648872215013  0.6397309570256695
  0.0078229545148223  0.2075757483780213  0.2880965152097152
  0.0172241907100755  0.8654412381147685  0.2896760727369123
  0.9834270149559285  0.1984661629918537  0.6303297815402650
  0.3522268678087112  1.0113500380198650  0.1745957044296208
  0.6420410176886826  1.0041158034867141  0.8208527600163862
  0.8479347666139396  0.5187968429309490  0.1380832177050847
  0.1456365553160985  0.4982082336436935  0.7965680689307711
  0.2810056827731092  0.0345861419079757  0.4263269811794614
  0.7381135150600568  0.0182495610856980  0.6118326274570746
  0.7496209566789753  0.5085835845795906  0.3401797260650403
  0.2539869606316686  0.4437884780172361  0.6417322730774387
  0.2144046671398430  0.9170033331812295  0.1258700976538905
  0.7758823943055843  0.0001370548517830  0.9527662134069534
  0.7151353104979250  0.5046116822852481 -0.0009588905393727
  0.2714331337506409  0.4931753990710696  0.9778533708355450
  0.2682281906110892  0.9133094346701650  0.5016749082071851
  0.7731201453950375  0.1384645108313921  0.5975200341397362
  0.7714289313617676  0.9052688131817961  0.5882508796070015
  0.2345251245783564  0.1244409649040541  0.4312528248982737
  0.7137677629245390  0.3903718513596479  0.3565502645186207
  0.2911358835592139  0.5555535598250575  0.6111243481821885
  0.2876225246755689  0.3259423023308847  0.6657402440174275
  0.7162457807755929  0.6237879962528000  0.3546949775752842
  0.1691679621932667  0.8223238431764917  0.6539065946215775
  0.8545088116875259  0.1772712959383520  0.3652872509517203
  0.8646386632076931  0.8429389993677325  0.3800984247999626
  0.1446488764650842  0.1538573825210121  0.7517048084623327
  0.6327040399144803  0.3455705228054634  0.6012214205926470
  0.3607001896137508  0.6930835348075612  0.3834463439298850
  0.3619209151408491  0.3872900086043293  0.3656067787436623
  0.6367758233197592  0.6745313139401672  0.5911108326168488
  0.1649209957019911  0.1076472983378186  0.8407006026726045
  0.8259705689786054  0.8289956281720418  0.3195561489489274
  0.8194399182241925  0.1839984783144830  0.2908780259797432
  0.1911246924850544  0.8545363063236774  0.7475182844965966
  0.6761530078513375  0.6889058769681151  0.6480819249920170
  0.3275863910582019  0.3447304667970291  0.3045814036516010
  0.3180473917551494  0.6879635354405236  0.3513217360197208
  0.6731002631357591  0.3297527480517463  0.6483819682507533
  0.1710475957898956 -0.0706264837891681  0.2177549511616105
  0.7594339683577188  0.9899728024821022  0.0910268755092015
  0.8348318975824436  0.0029002505018149  0.9286599242807849
  0.2237706102668887  0.7757621851299151  0.1110852325234470
  0.6558041450674778  0.4983395440739022  0.0204790038706103
  0.3324185852426894  0.4857885666390806  0.9765531003378002
  0.2476474010878941  0.5124606427868807  0.1046718834706872
  0.7323364326993096  0.5053725512994218  0.8616631864472842
  0.3357098147321929  0.0934334702857522  0.4970232109180005
  0.6856050420888710  0.0194733555590057  0.5059938480243857
  0.8010892308217615  0.5098831586277477  0.4492608990263451
  0.2069630219764044  0.4240580633616088  0.5225329276107584
  0.3978377320029950  1.0638218577695822  0.2850616121227564
  0.6019442046708354  1.0078605742437063  0.6858633315240352
  0.8873890520379902  0.5194172470410425  0.2738345010429777
  0.1118998742951663  0.4741830307763893  0.6560434763669778
  0.4882536125049407  0.9857223622302297  0.9867429681287707
  0.9891600790365084  0.5073251828731670  0.9449529730608560
  0.4985997670935268  0.4906921066688840  0.4910520395316174
  0.0003122840166613  0.0292327454200131  0.4634334920233997
  0.3675951721706123  0.9716870691298021  0.0145228769314683
  0.6207834488176202  0.9974625653871338  0.9775224325181914
  0.8708091123302845  0.5235304996423578  0.9812333220279208
  0.1150265556057754  0.5430804535229710  0.9363580903381669
  0.1132179003447969  0.7964561654536775  0.9944015944165691
 
             NaN             NaN             NaN
             NaN             NaN             NaN
             NaN             NaN             NaN
             NaN             NaN             NaN
             NaN             NaN             NaN
             NaN             NaN             NaN
             NaN             NaN             NaN
             NaN             NaN             NaN
             NaN             NaN             NaN
             NaN             NaN             NaN
             NaN             NaN             NaN
             NaN             NaN             NaN
             NaN             NaN             NaN
             NaN             NaN             NaN
             NaN             NaN             NaN
             NaN             NaN             NaN
             NaN             NaN             NaN
             NaN             NaN             NaN
             NaN             NaN             NaN
             NaN             NaN             NaN
             NaN             NaN             NaN
             NaN             NaN             NaN
             NaN             NaN             NaN
             NaN             NaN             NaN
             NaN             NaN             NaN
             NaN             NaN             NaN
             NaN             NaN             NaN
             NaN             NaN             NaN
             NaN             NaN             NaN
             NaN             NaN             NaN
             NaN             NaN             NaN
             NaN             NaN             NaN
             NaN             NaN             NaN
             NaN             NaN             NaN
             NaN             NaN             NaN
             NaN             NaN             NaN
             NaN             NaN             NaN
             NaN             NaN             NaN
             NaN             NaN             NaN
             NaN             NaN             NaN
             NaN             NaN             NaN
             NaN             NaN             NaN
             NaN             NaN             NaN
             NaN             NaN             NaN
             NaN             NaN             NaN
             NaN             NaN             NaN
             NaN             NaN             NaN
             NaN             NaN             NaN
             NaN             NaN             NaN
             NaN             NaN             NaN
             NaN             NaN             NaN
             NaN             NaN             NaN
             NaN             NaN             NaN
             NaN             NaN             NaN
             NaN             NaN             NaN
             NaN             NaN             NaN
             NaN             NaN             NaN
             NaN             NaN             NaN
             NaN             NaN             NaN
             NaN             NaN             NaN
             NaN             NaN             NaN
             NaN             NaN             NaN
             NaN             NaN             NaN
             NaN             NaN             NaN
             NaN             NaN             NaN
             NaN             NaN             NaN
             NaN             NaN             NaN
             NaN             NaN             NaN
             NaN             NaN             NaN
             NaN             NaN             NaN
             NaN             NaN             NaN
             NaN             NaN             NaN
             NaN             NaN             NaN
             NaN             NaN             NaN
             NaN             NaN             NaN
             NaN             NaN             NaN
             NaN             NaN             NaN
             NaN             NaN             NaN
             NaN             NaN             NaN
             NaN             NaN             NaN
             NaN             NaN             NaN
