N    C    H    Hg   Pt   O    Li
   1.00000000000000     
  16.5735064306263986  -0.1277649121142280  -0.2309294544788080
  -0.0607487090984583   7.9416585770252102   0.1500751053574820
  -2.1392915257577898   0.1548469075250250   7.2711290940409201
N    C    H    Hg   Pt   O    Li
12  20  40  2  2  4  1  
Direct
  0.4755928968751451  0.2023355245107741  0.7715814505525259  
  0.5404429745013646  0.7824025794777829  0.2358853641798200  
  0.5360577513918106  0.2175717183324067  0.2406424585271889  
  0.4762548305202736  0.7708734467039700  0.7653306730741238  
  0.9693140423774436  0.7102489731613585  0.7500578201945206  
  0.0061092639946916  0.2931934381137319  0.1849595743475761  
  0.0425834488998910  0.7365655915907816  0.2181535065736465  
  0.9568489430575216  0.2822027850278743  0.7160846649937279  
  0.2873141388208486  0.9955600956844090  0.2460124265710954  
  0.7283727637324168  0.0031216825512139  0.7775001654404351  
  0.7592853206279429  0.5058931723630513  0.1917301121366171  
  0.2352719853682331  0.5005605293023343  0.8067599810146174  
  0.4848929852489740  0.3117790732833141  0.6709240853882249  
  0.5251480455165277  0.6750442960439250  0.3323516294981379  
  0.5223536759194123  0.3204640478519505  0.3347669741766623  
  0.4861106060504188  0.6674804235441837  0.6675020257092559  
  0.9776441608843141  0.8168923605158466  0.6452036957321795  
  0.0004888426177766  0.1816712669686782  0.2869092719613509  
  0.0197077217172493  0.8299529696305560  0.3096033191927123  
  0.9676812016026628  0.1740512426388440  0.6249178303592764  
  0.3592395840343101  0.9907198237108500  0.2029041127609261  
  0.6533307554599844  0.9992916621507399  0.8194170188877116  
  0.8350174428212678  0.5116131102504791  0.1550248172908633  
  0.1558578443476322  0.4953021020808321  0.8236521218350925  
  0.2901511153821552  0.9993498356887029  0.4387995967594397  
  0.7267869474789860  0.0147360234631011  0.5837097389116073  
  0.7587817918517942  0.4912607753158328  0.3845546621976560  
  0.2470247031773985  0.4598446019355463  0.6287689576159420  
  0.2053938678928831  0.9798839417190480  0.1150071029080173  
  0.8048239841701791  0.9988995202766260  0.9084538890038000  
  0.6837581120587629  0.5135606496031959  0.0586210421206751  
  0.3038889978423005  0.5536403714065440  0.9405973301162356  
  0.2572993223399939  0.8882666575825306  0.4753074739582769  
  0.7607408989310698  0.1284606825418411  0.5595076859030964  
  0.7577293516136984  0.9043289314265540  0.5512662200410486  
  0.2571139799915215  0.1116189011200207  0.4611524584442293  
  0.7205289914312885  0.3818257966863544  0.4021269366947023  
  0.2731423643625674  0.5703723998535769  0.5737945513562984  
  0.2910630201855615  0.3543309535389063  0.6488440629240537  
  0.7310481793098975  0.6047467926352781  0.4192999405066614  
  0.1848781914473160  0.8278976781303539  0.6827894488001708  
  0.8068288761154853  0.1662730454587502  0.2937678576927671  
  0.8125900613277716  0.8339672479804118  0.3167125624881539  
  0.1456289867956830  0.1405774985812593  0.6408231533541543  
  0.6812672165110643  0.3428376243604368  0.6807184191283624  
  0.3322378039460469  0.6571727565010518  0.3541400072757768  
  0.2999048363805105  0.3411865555493691  0.2911944787868176  
  0.6817289380436212  0.6732877033049619  0.6536604421033240  
  0.1833914381174833  0.1486185291269252  0.7245265505931676  
  0.7683858059817993  0.8465252111499227  0.2542206036306178  
  0.7629692674229549  0.1558081631726497  0.2298279305744424  
  0.2233460223567575  0.8388942588278653  0.7642365986540628  
  0.7257535077869282  0.6639396099177777  0.7177515401989659  
  0.2538903951450355  0.3386128140680891  0.2377386954167034  
  0.2861353283843895  0.6763137054443706  0.3097176080562293  
  0.7253742987340819  0.3482634290297716  0.7448579717041162  
  0.2097706573266505  0.0166617376034671  0.9771929335561180  
  0.8066202533170114  0.9899608575142680  0.0521252383954874  
  0.8609721906416553  0.0025969503055926  0.8629290012662231  
  0.1617571236419086  0.0646084672514214  0.1535781052215756  
  0.6832939548110103  0.5255771554003124  0.9158616530638130  
  0.3638014270829686  0.5616847434193480  0.9101787019743424  
  0.2962626787799881  0.5868234666223113  0.0714837809040348  
  0.6268191455654681  0.5072076922988007  0.1011195983454593  
  0.3554144911536515  0.0006357477354343  0.5286178321042660  
  0.6615294270666313  0.0207415219995605  0.4938282589708710  
  0.8233493366128929  0.4753837763465890  0.4757179939180683  
  0.1863131799954044  0.4263302656423104  0.5312911495540696  
  0.4167829376001572  0.9917855738154320  0.3208260394427107  
  0.5975251022883530  0.0032391083602780  0.6966841796414653  
  0.8901269713697056  0.5041049281202528  0.2785818750985456  
  0.1076852153871927  0.4477253726877040  0.7031354789766835  
  0.4974338331486121  0.9923155592389110  0.0021017128684610  
  0.9776937073562840  0.4848746647537751  0.9480927206855549  
  0.5034868206058092  0.4939124826325297  0.5002552823204089  
  0.9901739995881980  0.9985686999875800  0.4662925385319009  
  0.3620221149276705  0.9819593525208850  0.0359567331666699  
  0.6486204135719689  0.9922974438113940  0.9810641661354810  
  0.8410368425616029  0.5244791261864836  0.9925160402729950  
  0.1375592935154496  0.5405866438216747  0.9661719901427710  
  0.1364611090291045  0.7476840055665206  0.0911964039002259  
