H    Li   C    N    O    Fe   Cu        
   1.00000000000000     
     7.2790749796099332   -1.0425488696157759    0.5128596971080202
    -0.3687651389556346    7.1324370339659326    0.0210390107885336
     0.1062261309335154    0.0014648769351622    6.7097139127843475
   H    Li   C    N    O    Fe   Cu
    14     1    10     6     2     1     1
Selective dynamics
Direct
  0.5568069570944469  0.9640759202325623  0.7020162808946823   T   T   T
  0.2164017725708586  0.0176961319908171  0.2705140818754794   T   T   T
  0.3543775824640703  0.2479540730791467  0.2771924744537954   T   T   T
  0.1867343806207098  0.1610679138050196  0.4843134696953890   T   T   T
  0.5825653732589832  0.0594140142591214  0.1870943958722330   T   T   T
  0.5261840555343110  0.8269981694502484  0.2982857549998465   T   T   T
  0.7025742247243393  0.0185186093244005  0.3917223165543466   T   T   T
  0.3681970719788791  0.5409110236959396  0.4793261224861048   T   T   T
  0.5507347158626341  0.3607145983045839  0.9749806616049347   T   T   T
  0.6617247018487696  0.6065342140300427  0.9604075924422812   T   T   T
  0.7339221476281712  0.4423315944888657  0.7859444111636285   T   T   T
  0.3350173258965937  0.6844201663525212  0.9324658213331783   T   T   T
  0.2475900390340441  0.4311520717378565  0.9537632906908504   T   T   T
  0.2029972313643604  0.5636337121123489  0.7449293687936451   T   T   T
  0.7917341447651574  0.7813017830525510  0.3958643170560591   T   T   T
  0.9266124569218199  0.7911781714074475  0.0783988574128146   T   T   T
  0.8815806254793678  0.1645047384905500  0.7040334870052221   T   T   T
  0.0098495060924735  0.8141735281611737  0.6794154252397904   T   T   T
  0.0038702927005245  0.2006755145540464  0.0790505357006220   T   T   T
  0.4401952994964787  0.0338407418805808  0.6667953680373714   T   T   T
  0.2887892258105824  0.1221657439881502  0.3714780706466490   T   T   T
  0.5661144566882235  0.9808105919022353  0.3304751487711429   T   T   T
  0.4956527223978786  0.5219809464507728  0.5465261429254079   T   T   T
  0.6152841482019824  0.4795725133482978  0.8731444440664853   T   T   T
  0.3046261527219921  0.5506829759734134  0.8498890136534999   T   T   T
  0.9425821985960257  0.6661032785444283  0.1882755487151211   T   T   T
  0.8941776759460456  0.2904285236215779  0.5860768138024639   T   T   T
  0.9767935443388021  0.6818196118191509  0.5717871473048119   T   T   T
  0.9525956390222228  0.3054173998660475  0.1995867969989304   T   T   T
  0.4283007705103106  0.0454941777615472  0.4660315947719287   T   T   T
  0.4770372181614136  0.5159372436069398  0.7437509375008124   T   T   T
  0.3419963207745398  0.0915032997752460  0.8018986275315998   T   T   T
  0.6380452901886959  0.5152058829200018  0.4231328116643470   T   T   T
  0.9129564084788108  0.4821422416712413  0.3923077934668351   T   T   T
  0.9666533228254798  0.9976458783411288  0.8854430748676945   T   T   T
 
  0.00000000E+00  0.00000000E+00  0.00000000E+00
  0.00000000E+00  0.00000000E+00  0.00000000E+00
  0.00000000E+00  0.00000000E+00  0.00000000E+00
  0.00000000E+00  0.00000000E+00  0.00000000E+00
  0.00000000E+00  0.00000000E+00  0.00000000E+00
  0.00000000E+00  0.00000000E+00  0.00000000E+00
  0.00000000E+00  0.00000000E+00  0.00000000E+00
  0.00000000E+00  0.00000000E+00  0.00000000E+00
  0.00000000E+00  0.00000000E+00  0.00000000E+00
  0.00000000E+00  0.00000000E+00  0.00000000E+00
  0.00000000E+00  0.00000000E+00  0.00000000E+00
  0.00000000E+00  0.00000000E+00  0.00000000E+00
  0.00000000E+00  0.00000000E+00  0.00000000E+00
  0.00000000E+00  0.00000000E+00  0.00000000E+00
  0.00000000E+00  0.00000000E+00  0.00000000E+00
  0.00000000E+00  0.00000000E+00  0.00000000E+00
  0.00000000E+00  0.00000000E+00  0.00000000E+00
  0.00000000E+00  0.00000000E+00  0.00000000E+00
  0.00000000E+00  0.00000000E+00  0.00000000E+00
  0.00000000E+00  0.00000000E+00  0.00000000E+00
  0.00000000E+00  0.00000000E+00  0.00000000E+00
  0.00000000E+00  0.00000000E+00  0.00000000E+00
  0.00000000E+00  0.00000000E+00  0.00000000E+00
  0.00000000E+00  0.00000000E+00  0.00000000E+00
  0.00000000E+00  0.00000000E+00  0.00000000E+00
  0.00000000E+00  0.00000000E+00  0.00000000E+00
  0.00000000E+00  0.00000000E+00  0.00000000E+00
  0.00000000E+00  0.00000000E+00  0.00000000E+00
  0.00000000E+00  0.00000000E+00  0.00000000E+00
  0.00000000E+00  0.00000000E+00  0.00000000E+00
  0.00000000E+00  0.00000000E+00  0.00000000E+00
  0.00000000E+00  0.00000000E+00  0.00000000E+00
  0.00000000E+00  0.00000000E+00  0.00000000E+00
  0.00000000E+00  0.00000000E+00  0.00000000E+00
  0.00000000E+00  0.00000000E+00  0.00000000E+00
