N    C    H    Pt   Pb   O    Li
   1.00000000000000     
  16.3607625277057984   0.2916047814668320  -0.8449630152913430
   0.1401759741998100   7.1569297520873301   0.0117159140364815
  -2.3934411616580498  -0.0248167252979894   6.9092583060489803
N    C    H    Pt   Pb   O    Li
12  20  40  2  2  4  1  
Direct
  0.4693417120200289  0.1999949243873806  0.7969300756363707  
  0.5381717767327430  0.8133492873679788  0.2057529453575715  
  0.5399599238086689  0.1883791561638068  0.2039389064999125  
  0.4674692208170330  0.8083495600867219  0.7962619690743988  
  0.9617606950061685  0.6902063794211024  0.7890506052349012  
  0.0432497793390182  0.3138551425642289  0.2064061060725261  
  0.0319163476691971  0.6900443935034155  0.2055559532214739  
  0.9799956410654828  0.2957549954003511  0.8040601172836855  
  0.2732201755296481  0.9995608941376610  0.2107805519358233  
  0.7268705432479011  0.0010923848729469  0.8029449691830000  
  0.7758033632176261  0.4985292688622203  0.1979520869048291  
  0.2242632877244755  0.5036387915806545  0.8018856131271501  
  0.4900404367999210  0.3051104345656352  0.7009422141943208  
  0.5628204034430647  0.7169851216213723  0.3470849141110636  
  0.5711098586683475  0.2857126772083934  0.3404042261840882  
  0.4805777505686185  0.6989632408938279  0.6898887056183408  
  0.9597027747308788  0.7764675433672430  0.6498213886197426  
  0.0691708949541284  0.2092258148481122  0.3414266494222483  
  0.0512835996005976  0.7818664109155706  0.3498977261943345  
  0.0063890620908666  0.1662461399108558  0.7354650574768989  
  0.3488888138436868  0.0106542964169313  0.1747024315368168  
  0.6502746343316174  0.9976568470912980  0.8292708045066638  
  0.8531918577680082  0.4950135222613292  0.1733686459268544  
  0.1463576736599158  0.5022201959665208  0.8242013140789318  
  0.2756511018278918  0.9980650909742640  0.4139540586602083  
  0.7315462472169492  0.0003791781598387  0.6076010444440284  
  0.7702068937087062  0.5018860202111483  0.3939678209968699  
  0.2312443759735969  0.4967062081342616  0.6082057964216611  
  0.1877307078458734  0.9944084263382924  0.0698583901663227  
  0.8109194990310502  0.0009880607846701  0.9568774613648487  
  0.6923025561004617  0.4998499623324458  0.0411246070890833  
  0.3082230224727364  0.5038544670380025  0.9578588056491401  
  0.2410790492005661  0.8756967850109082  0.4320453148427565  
  0.7660275334346260  0.1237298231112078  0.5911964816935052  
  0.7682737500553498  0.8745031994273158  0.5909978877124041  
  0.2388431318680749  0.1218064915742790  0.4355613824478615  
  0.7332183747490453  0.3828268715015338  0.4102410168859003  
  0.2675707709444193  0.6166956350426486  0.5910933943366266  
  0.2679080575636125  0.3692343667709750  0.5961516525517724  
  0.7329795067247078  0.6273118764068593  0.4089979074234794  
  0.1697890471171348  0.8326680195236161  0.6236419632882222  
  0.8035449320929814  0.1867199897165485  0.3296151509189351  
  0.8148681751308156  0.8178691547046348  0.3420850753105402  
  0.1624265354997564  0.1709295844996221  0.6440864132098710  
  0.6646017687598300  0.3306332908045723  0.6418482980213841  
  0.3191600167657700  0.6851004087811852  0.3467812318265182  
  0.3198826255212254  0.3212232032333687  0.3523595503212584  
  0.6636274478476580  0.6740712106719124  0.6410990495773328  
  0.2019922340644402  0.1492630745918380  0.7366175284313194  
  0.7791285182312343  0.8570629245765099  0.2503343561940488  
  0.7688427820095890  0.1383234561670505  0.2463117403416907  
  0.2054033424964388  0.8599699658857651  0.7212325774170247  
  0.7000590907887901  0.6436737925092183  0.7357637312482311  
  0.2828473972547353  0.3597047445238897  0.2629114926663724  
  0.2843502755218026  0.6439828766979846  0.2580033033928060  
  0.6995996388772880  0.3583048789009952  0.7380643725513190  
  0.1617094303982408  0.1136801002802677  0.9667699159239920  
  0.8469345683500163  0.8662938754679287  0.9936582409838316  
  0.8452653579800282  0.1324415389969634  0.9822192742396229  
  0.1433170825791306  0.9059777337757324  0.1126168884770463  
  0.6545257563207153  0.6321200496052967  0.0099042881285297  
  0.3442910997906944  0.3688065681765029  0.9922627987845498  
  0.3428832144153055  0.6346598382450689  0.9860605854643048  
  0.6574417545540291  0.3699149182162042  0.0106502032519891  
  0.3437078616379312  0.9945753760081733  0.5207031394521591  
  0.6649793656518066  0.0029296794205656  0.4944802996696642  
  0.8365138697987059  0.4980693535561261  0.5093215806118282  
  0.1654063726368770  0.4992791325464343  0.4922696006349818  
  0.4092809482907264  0.0155527329984096  0.3100344839852213  
  0.5916924051024982  0.9977542436978234  0.6911615380929651  
  0.9111510026253872  0.4982792132682932  0.3126786249383439  
  0.0891881926622364  0.4867959000889713  0.6841641173393274  
  0.4982397437586288  0.0023273070396315  0.9993942957623499  
  0.9990975714043230  0.4998723290923650  0.9984272476753908  
  0.4675630751901048  0.4983946395464974  0.4176598464473406  
  0.9584219915757282  0.0221819227975527  0.4095966285701412  
  0.3534267457943587  0.0108024368388439  0.0024571360283968  
  0.6431094193461210  0.9943289220565265  0.9983963341216172  
  0.8619334385890618  0.4933035073192095  0.0047719093001980  
  0.1368526881279161  0.5164943209793865  0.9911608161464012  
  0.0984084624557275  0.8523137734959129  0.7910573413461710  
