H    Li   C    N    O    Cu             
   1.00000000000000     
     7.9785783822336613   -0.9820444164327853    0.4424609941375221
    -0.3591241268082301    7.2481700009386678    0.0189204523776096
     0.0405502257253759   -0.0008722938225047    6.4852595213614670
   H    Li   C    N    O    Cu
    14     1    10     6     2     2
Selective dynamics
Direct
  0.6471701240407001  0.9363457553547876  0.6135612886456646   T   T   T
  0.2168153592749060  0.0394235311831485  0.3914983781058543   T   T   T
  0.3464860874633079  0.2630271762913695  0.3845634191747755   T   T   T
  0.2738245999384326  0.1500902047231689  0.6298795890141121   T   T   T
  0.5541916534791339  0.1373840891566582  0.1656481776919549   T   T   T
  0.4647054349452493  0.8989115033502443  0.1829621106081585   T   T   T
  0.6700358883231281 -0.0195113413273469  0.2793972028845346   T   T   T
  0.2838343096143343  0.5894201664656065  0.5147845889841099   T   T   T
  0.5600680240556750  0.4431889831682686  0.9802090266333952   T   T   T
  0.6585755449466777  0.6622400356857786  0.8715456539709979   T   T   T
  0.6572625376026694  0.4523423742443908  0.7252588088394264   T   T   T
  0.3016893223303042  0.7162774757822803  0.9570846753443797   T   T   T
  0.2959957114186062  0.4797622126992245  0.0411797259076311   T   T   T
  0.1659947747606508  0.5277809135323510  0.8424129546699655   T   T   T
  0.7557182675650854  0.6827690530264388  0.4039204291624534   T   T   T
 -0.0984979828936218  0.7407392971533290  0.0524747632317785   T   T   T
  0.8999562415510299  0.1388061755086661  0.6975553016621600   T   T   T
  0.0199425137347551  0.7857853458874866  0.6506367035480611   T   T   T
  0.0516036339395771  0.1395072043605344  0.0645786961263487   T   T   T
  0.5320937549674122 -0.0005486630468442  0.6442744289697578   T   T   T
  0.3168537190800280  0.1290520085740616  0.4696431524602865   T   T   T
  0.5423750602453820  0.0117265904025221  0.2650374936605422   T   T   T
  0.4115247031039328  0.5752770619075653  0.5560526714114014   T   T   T
  0.5846604277202894  0.5256213176824758  0.8364300161452558   T   T   T
  0.2885629407286372  0.5698233314567599  0.9079629487014244   T   T   T
  0.8879599856884460  0.6018475078728023  0.1515081814157834   T   T   T
  0.8893086698106121  0.2626202608047656  0.5850755006836360   T   T   T
  0.0117475975070085  0.6628047857276045  0.5313556267044336   T   T   T
  0.0510760558066564  0.2623869159606442  0.1824601199647239   T   T   T
  0.4664925813249323  0.0429365385559333  0.4677664960815985   T   T   T
  0.4253823874609443  0.5476846068778630  0.7570813034869173   T   T   T
  0.4776409707335842  0.0248786866345143  0.8239419024101966   T   T   T
  0.5310183852007296  0.5859445015762600  0.4202140546093993   T   T   T
  0.9679219732430361  0.4392331740840499  0.3598793908022839   T   T   T
  0.9712837412877627  0.9524282186826410  0.8684832182866002   T   T   T
 
  0.00000000E+00  0.00000000E+00  0.00000000E+00
  0.00000000E+00  0.00000000E+00  0.00000000E+00
  0.00000000E+00  0.00000000E+00  0.00000000E+00
  0.00000000E+00  0.00000000E+00  0.00000000E+00
  0.00000000E+00  0.00000000E+00  0.00000000E+00
  0.00000000E+00  0.00000000E+00  0.00000000E+00
  0.00000000E+00  0.00000000E+00  0.00000000E+00
  0.00000000E+00  0.00000000E+00  0.00000000E+00
  0.00000000E+00  0.00000000E+00  0.00000000E+00
  0.00000000E+00  0.00000000E+00  0.00000000E+00
  0.00000000E+00  0.00000000E+00  0.00000000E+00
  0.00000000E+00  0.00000000E+00  0.00000000E+00
  0.00000000E+00  0.00000000E+00  0.00000000E+00
  0.00000000E+00  0.00000000E+00  0.00000000E+00
  0.00000000E+00  0.00000000E+00  0.00000000E+00
  0.00000000E+00  0.00000000E+00  0.00000000E+00
  0.00000000E+00  0.00000000E+00  0.00000000E+00
  0.00000000E+00  0.00000000E+00  0.00000000E+00
  0.00000000E+00  0.00000000E+00  0.00000000E+00
  0.00000000E+00  0.00000000E+00  0.00000000E+00
  0.00000000E+00  0.00000000E+00  0.00000000E+00
  0.00000000E+00  0.00000000E+00  0.00000000E+00
  0.00000000E+00  0.00000000E+00  0.00000000E+00
  0.00000000E+00  0.00000000E+00  0.00000000E+00
  0.00000000E+00  0.00000000E+00  0.00000000E+00
  0.00000000E+00  0.00000000E+00  0.00000000E+00
  0.00000000E+00  0.00000000E+00  0.00000000E+00
  0.00000000E+00  0.00000000E+00  0.00000000E+00
  0.00000000E+00  0.00000000E+00  0.00000000E+00
  0.00000000E+00  0.00000000E+00  0.00000000E+00
  0.00000000E+00  0.00000000E+00  0.00000000E+00
  0.00000000E+00  0.00000000E+00  0.00000000E+00
  0.00000000E+00  0.00000000E+00  0.00000000E+00
  0.00000000E+00  0.00000000E+00  0.00000000E+00
  0.00000000E+00  0.00000000E+00  0.00000000E+00
