N    C    H    Co   Ni   O    Li
   1.00000000000000     
  19.5382745662497008  -1.2769917171343699   0.6242614940090930
  -0.3983950041212870   6.8702804586113402  -0.0822986454967948
  -1.2566099393581001   0.0127244020218202   6.8019784201690801
N    C    H    Co   Ni   O    Li
12  20  40  2  2  4  1  
Direct
  0.5061393663394451  0.1928609786896174  0.8115697063998483  
  0.4960168441767847  0.8064570024889665  0.1897221462691321  
  0.4991497785270883  0.1913190606461084  0.1904579193349918  
  0.5032034457555530  0.8082144880911462  0.8110497094744390  
  0.9977938638741134  0.8179264229105447  0.8225989928384543  
  0.9936231955092972  0.4353821825854861  0.1986670726718737  
  0.9946628842148876  0.8158436417220984  0.1990446500241677  
  0.9961178299862532  0.4369697352559613  0.8198799862945025  
  0.2685812697681033  0.9169322211694406  0.9965543016022292  
  0.7329949241145375  0.0332468439004355  0.0088198085339326  
  0.7351807532417881  0.5320889642001067  0.0096559783630438  
  0.2747471337114065  0.4178151680161657  0.9891493518288992  
  0.5052803025649600  0.3120688251521895  0.6905125317657236  
  0.4969766408414980  0.6872465995577920  0.3107689817932898  
  0.4994573494531688  0.3108372804716816  0.3112569037485166  
  0.5031211828438628  0.6886747097336330  0.6904829902371813  
  0.9979661662142504  0.9373022879985510  0.7008818001313217  
  0.9934300973909768  0.3147160059415164  0.3206574500160396  
  0.9947997604808244  0.9351502615497936  0.3209455712528924  
  0.9962950653053584  0.3163314893558514  0.6983841571823347  
  0.3398584379022492  0.9440185463835690  0.0428023644726120  
  0.6619150499078559  0.0230547570546611  0.9601502591924436  
  0.8070735896615279  0.5522170626867280  0.0494461076055429  
  0.2049385656066867  0.3806486843747544  0.9263934802870920  
  0.2260480205406558  0.8910138179210435  0.1540005555341128  
  0.7761918549243686  0.0375779215094205  0.8525708586305351  
  0.6945150808236120  0.5262767134427139  0.1712673883403939  
  0.3225714336713417  0.4447551924381982  0.8441826875466597  
  0.2355203770500144  0.9144965427972216  0.8080159279529505  
  0.7648675533779348  0.0429552776634176  0.1983355198295330  
  0.7012821799794484  0.5173004105511770  0.8222513975438875  
  0.3020275542503673  0.4276954601932924  0.1824390765782451  
  0.1918907766336790  0.7514167689005220  0.1334114902989592  
  0.8103609325439061  0.1770372413609896  0.8587791598022884  
  0.8078359075784608  0.9160751876936236  0.8684317395705620  
  0.1940160820500988  0.0110628906765785  0.1536960871574587  
  0.6604550027879068  0.3869433228346937  0.1680056048943945  
  0.3549452377716714  0.5866912379384184  0.8686487187896581  
  0.3559490435559070  0.3272476678088410  0.8560083235212176  
  0.6625492517794117  0.6470981459610787  0.1600512950349131  
  0.1161006516182687  0.6487832094434935  0.4433138369554356  
  0.8388551068182690  0.3833872156644757  0.5811530925838522  
  0.8415499542402892  0.7456829321852394  0.5823595384185352  
  0.1371807237723369  0.1627273049170172  0.4736548278623417  
  0.6382429978954409  0.1769437851053555  0.4449191933546810  
  0.3592022217000803  0.7754395320619162  0.5578474221393213  
  0.3594747866514932  0.1290438012400948  0.5573600641199394  
  0.6413853558474106  0.8208318667053061  0.4526514251031471  
  0.1690211477795028  0.2030163413731030  0.4307624605396794  
  0.8280012985487383  0.7966326384698024  0.4910164148360628  
  0.8275241954432919  0.3258154276718888  0.4870438527165279  
  0.1519861235412205  0.6498292132151448  0.5001318020894827  
  0.6616931616861373  0.7729817619433978  0.5362851661828874  
  0.3421506445758546  0.1688753191614343  0.4639415430537316  
  0.3431028292048383  0.7156799439744346  0.4680067536486824  
  0.6569189292887648  0.2305731434921270  0.5359539874242387  
  0.2672439468700120  0.9368444232866910  0.6925326284089109  
  0.7324566875718029  0.0412503901926452  0.3123308162316614  
  0.8211715773674346  0.0523418663434787  0.2261125802107384  
  0.1791053481769563  0.8931472919429980  0.7827780804281326  
  0.6448600346352626  0.5000040627311004  0.7982477293523317  
  0.3581171778072506  0.4538798459233541  0.2218270515810377  
  0.2660493631972795  0.4081875544702613  0.2875867333685447  
  0.7328532209645755  0.5211240243635086  0.7059918926016385  
  0.2602736093001802  0.8909570110273394  0.2943555105360769  
  0.7423098680025801  0.0228790389955425  0.7111684933096930  
  0.7302893453262899  0.5410065122980239  0.3096120729743993  
  0.2920993458160218  0.4402950094088032  0.6977815937231431  
  0.3592487288380885  0.9431645126092985  0.2004629191208060  
  0.6431869964765140  0.0133338735207703  0.8019805736782796  
  0.8273878954156852  0.5625551964698751  0.2073623556404121  
  0.1901199252640649  0.3796667840375439  0.7666999130416949  
  0.5013088926055302  0.9997398883350600  0.0007924765199016  
  0.9931376149336624  0.6259885003987942  0.0089247527394674  
  0.5013207570566385  0.4997945087742668  0.5008070464387478  
  0.9958093058152372  0.1263082625626696  0.5101710771193280  
  0.3791443043455267  0.9668928805344696  0.9153733050987420  
  0.6222497645367023  0.0244193578074801  0.0857789677416287  
  0.8447651404816572  0.5580996426768483  0.9199270316775712  
  0.1611548522531495  0.3507896033109136  0.0428736067861151  
  0.0670565672595981  0.3294394238547493  0.0425913031991412  
