N    C    H    Pb   Pd   O    Li
   1.00000000000000     
  14.9456059787806002   0.3013023583020030  -1.5615793785657601
   0.1391201717223750   7.4950857461839400   0.0750702973419659
  -2.5310668237959000   0.0376544747936015   7.3601976820462403
N    C    H    Pb   Pd   O    Li
12  20  40  2  2  4  1  
Direct
  0.4612285461295405  0.2214963800593726  0.7635090464438389  
  0.5413766569360126  0.7820097385585070  0.2385334733678783  
  0.5402661941917395  0.2161766452028045  0.2375003799408505  
  0.4639466241335949  0.7802113255278025  0.7679344320549537  
  0.9449097948044376  0.7258252061961332  0.7401936971140252  
  0.0728581103036176  0.2756988654064950  0.2981739294207623  
  0.0565815356502860  0.7188382606236915  0.2490447578855760  
  0.9407787788428664  0.2751866224908248  0.7240232950601596  
  0.2647616519578364  0.0035084355805760  0.2000197894045969  
  0.7339604967968486  0.9993294797556440  0.8075626690299414  
  0.7592257533314942  0.5004485838519499  0.2152896904035573  
  0.2453822871724243  0.4964033564052306  0.7845666564309487  
  0.4810334656084682  0.3198532539211735  0.6662703308700039  
  0.5228627493727012  0.6811525301103739  0.3351485818862998  
  0.5235460958232597  0.3156357784966314  0.3382714846786057  
  0.4820019386657184  0.6845847404286421  0.6651405186433513  
  0.9502514461125128  0.8142323615841641  0.6199458263129736  
  0.0310208676616868  0.1749927304417665  0.3502883349556245  
  0.0186972210270865  0.8130119725161906  0.3215322486922012  
  0.9579916252296018  0.1763359393678981  0.6248241953226660  
  0.3457825377888918  0.0126705809085412  0.1621096270297284  
  0.6518858026448680  0.9953044803974940  0.8349310931656549  
  0.8427002085063511  0.5042732839099537  0.1944055236230358  
  0.1603407136016928  0.5169789187030818  0.7976112987127191  
  0.2800242035077325  0.9923014149801420  0.4003368635697411  
  0.7294637402555681  0.0006428888925626  0.6160303790391365  
  0.7592292807290851  0.5005289111481068  0.4029690317239058  
  0.2464784924859283  0.4865278758101233  0.5984297527236960  
  0.1699783076950971  0.0124629498931669  0.0668163285820919  
  0.8277352495789754  0.9998703218715140  0.9601886781250664  
  0.6675227153063584  0.4980907910369168  0.0563695965710874  
  0.3354874899647388  0.5055490238707249  0.9465337296391488  
  0.2462670145591904  0.8722292279966645  0.4221564217790333  
  0.7663410229062975  0.1174345390634842  0.5965421765618169  
  0.7664804106212521  0.8786776691800084  0.5972134706581036  
  0.2445800644462051  0.1108242987064459  0.4300581667874968  
  0.7230801643041540  0.3824929158811435  0.4216818315324882  
  0.2843791300121108  0.6020000978367819  0.5783852889227070  
  0.2847643648357687  0.3629944989699802  0.5884011184114639  
  0.7195369897141403  0.6208465168266788  0.4169452879520027  
  0.1763451410930347  0.8346516659420928  0.6362049926778309  
  0.8133162127941178  0.1686855019256651  0.3316810189714986  
  0.8132858069570522  0.8238409474211695  0.3326670147379500  
  0.1673851570273075  0.1706551603818446  0.6604113322851042  
  0.6756248990724939  0.3407989855843416  0.6734073871422724  
  0.3300860630946233  0.6583146810124946  0.3313928573420492  
  0.3281905654357374  0.3345794199908811  0.3359187774748509  
  0.6729892267298073  0.6694367476287767  0.6682916046356246  
  0.2150386236776709  0.1493505884324655  0.7450732433098934  
  0.7698685763714569  0.8545398010285088  0.2432202466629351  
  0.7728486875611402  0.1405261370228738  0.2405623297400473  
  0.2195466719242521  0.8588404397601105  0.7273477209217125  
  0.7201339980227510  0.6475719473960346  0.7538419762403298  
  0.2802918803243224  0.3521456630425468  0.2512194294958476  
  0.2818687284570341  0.6485672899019989  0.2469959834246895  
  0.7224672405205217  0.3528427433716874  0.7599818858452140  
  0.1518170900059834  0.0832446949241086  0.9302235260690940  
  0.8641400815745068  0.8729816402402735  0.0256570496260480  
  0.8639271585727143  0.1262629840634744  0.9963917417416474  
  0.1143034812460018  0.9755551802466514  0.1162710563338560  
  0.6308751094833820  0.6242113038436415  0.9897577924464410  
  0.3742782947215160  0.3803477930305105  0.0109163556826065  
  0.3644347996492082  0.6349076670851392  0.9988194034763084  
  0.6333985597843887  0.3707963089594978  0.0140474792038419  
  0.3582154162601065  0.9848877245897820  0.4938236416490383  
  0.6527267216359796  0.0072361437950004  0.5115503051228038  
  0.8350547395303085  0.4969302099259815  0.5107212693003518  
  0.1708243733525791  0.4916967841025128  0.4899054711160989  
  0.4157482494501085  0.0181328955417118  0.2901960608531651  
  0.5838460230950933  0.9945706420735880  0.7057349918272677  
  0.9095494119217470  0.5047830292841010  0.3272501860904255  
  0.0946137706658546  0.4920904999746732  0.6688350616065545  
  0.4981294408225112  0.9999754650865920  0.0004457694866963  
  0.0057832585404575  0.4773301163638562  0.0065988935352417  
  0.5024056924387833  0.5008211564474949  0.5012049247432651  
  0.9814303839796148  0.9919813866798010  0.4666455319035461  
  0.3416082405028852  0.0144754022833055  0.9921608690857870  
  0.6522088241921719  0.9965749640595940  0.0018397245879149  
  0.8463372090616759  0.5053356309208857  0.0347367815563425  
  0.1535135084958031  0.5721603770763726  0.9478432235377880  
  0.1078229911082629  0.8031987426862214  0.8306760556627691  
