N    C    H    Hg   Cd   O    Li
   1.00000000000000     
  17.2243501221829014  -0.1505015899573700   0.0113725676505182
  -0.0684657612491466   8.2924751078814793   0.2530706294790620
  -2.0933626389540199   0.2503732798163610   7.5740007038462895
N    C    H    Hg   Cd   O    Li
12  20  40  2  2  4  1  
Direct
  0.5216874431475023  0.2255869856848274  0.8448315442474399  
  0.5485493074783745  0.8437971993291682  0.2531507139113926  
  0.4886293145765425  0.2612995035226767  0.2324371485992173  
  0.4615216023916875  0.8236580369624793  0.7778215017800795  
  0.9701504398231368  0.6996101620038161  0.7525807672446715  
  0.0136706437173016  0.3342637541659960  0.1489769813638383  
  0.0422599377119392  0.7823945127005881  0.1769095609189171  
  0.9335447558938088  0.3048720475045681  0.6845446202627963  
  0.2814798197700369  0.9875515949925830  0.2107086906186172  
  0.7302189205848514  0.9907674482776746  0.7741396227187846  
  0.7576591793689338  0.5164136094596333  0.1790974862508688  
  0.2568280134876724  0.4917070640743113  0.8815321890652931  
  0.5311020361907464  0.3367659694862244  0.7527312201482611  
  0.5539782042205563  0.7395505877008662  0.3634167838819760  
  0.4775257064206252  0.3634484054887700  0.3197018001425773  
  0.4602126722731767  0.7222951185446237  0.6798325466383860  
  0.9827949446534520  0.8109256023442182  0.6646470921373538  
  0.0289414578795172  0.2418737550661356  0.2726071673145948  
  0.0072071044595829  0.8565898196768046  0.2545280426618902  
  0.9373448483814796  0.2065255228151917  0.5866001838084580  
  0.3550802625920310  0.9910424053775404  0.1866861103150618  
  0.6603416784271412  0.9824543698655624  0.8280765974191995  
  0.8307904717168377  0.5039328189378093  0.1430696024395317  
  0.1779822702622502  0.4716095534946134  0.8814899779943908  
  0.2730400486016525  0.9963234953356810  0.3888670662562304  
  0.7249431485737076  0.0244504448281418  0.5867708742956876  
  0.7540209076138817  0.5051393032715396  0.3635257779134078  
  0.2939981756991318  0.3714471540569801  0.7979835374660590  
  0.2082626106183056  0.9731251127107818  0.0710263250878711  
  0.8040965576445709  0.9690866155017273  0.8899116021639871  
  0.6874931311139788  0.5382218804470383  0.0509902933599016  
  0.3031918865405699  0.6122389584083878  0.9647394525657936  
  0.2384587022340779  0.8922969290857562  0.4224679346485855  
  0.7617920480212625  0.1303949039372966  0.5706007435513070  
  0.7468243249527122  0.9206228140773188  0.5334504161520047  
  0.2398139455063955  0.1067352309082832  0.3968373101045026  
  0.7166246317993193  0.4016820048043527  0.3857013571196795  
  0.3340409789424399  0.4337167469387573  0.7278536489692485  
  0.3284788131725303  0.2831956350464370  0.8986164664573381  
  0.7268511516396701  0.6154975448998063  0.3912701802206554  
  0.1572106325726844  0.7677279227285664  0.6130410050980479  
  0.7733542969299417  0.1785937679783435  0.2537976919173296  
  0.8388804215790104  0.8205754932125099  0.3424677119000409  
  0.1270462555427060  0.1264157412756884  0.6113574102370357  
  0.6968302789790723  0.3256728521752156  0.7181111238238259  
  0.2894839489944888  0.6400505197962604  0.4229663916357223  
  0.2929179517468228  0.3323065653653152  0.2186273715738470  
  0.7000451253156631  0.6754361911702343  0.6444925990887491  
  0.1305253804164626  0.0768663135829454  0.6968018304799144  
  0.8036608905371713  0.8753267384154292  0.3015395780147299  
  0.7414834558864365  0.1355591239165331  0.1871694509732650  
  0.1879224045274673  0.7994779930631023  0.6905323025506878  
  0.7389218899194936  0.6544912638556888  0.7121977855346743  
  0.2481755300974462  0.3207639094510240  0.2013647806699637  
  0.2788676911260319  0.5737169693986753  0.3599974193181700  
  0.7394904153415491  0.3511501288077998  0.7579903522676650  
  0.1641269473078093  0.0598478199788899  0.0921633845193027  
  0.8570142727426583  0.9804612373629596  0.8401158411989738  
  0.8066125965293341  0.9385839890010944  0.0271479635039198  
  0.2225794628764843  0.0063897251187868  0.9450947738116240  
  0.6324222024558851  0.5509659785736882  0.0909697534155166  
  0.3645201876219478  0.6235589912811713  0.9540334956258840  
  0.2756997797817066  0.7003072513099678  0.0271467522026825  
  0.6896915844269309  0.5430637267964405  0.9146138671547532  
  0.3322302335859823  0.9981109464994120  0.4848477504380093  
  0.6621798058385175  0.0478413150191614  0.5133719887244234  
  0.8146802709331774  0.4900682312698949  0.4521712470615076  
  0.2467693869183680  0.3086782463351868  0.7032623821430966  
  0.4045465227047128  0.9946380895079781  0.3080828643531116  
  0.6055663562129919  0.0002396866006722  0.7179448856151976  
  0.8814399626079490  0.4822980203940946  0.2615017096173279  
  0.1485706905669399  0.3686032504228445  0.8087806892990660  
  0.5025750256717954  0.0217748311438252  0.0224934000541415  
  0.9751268329672320  0.4974122585583476  0.9295238595719252  
  0.5007021100791772  0.5409081113617166  0.5254419693110095  
  0.9835433628729124  0.0215163084951625  0.4453902983919052  
  0.3680890528696363  0.9893594122697276  0.0336986542448601  
  0.6590326506877383  0.9585130305058712  0.9851543855794944  
  0.8388370596601649  0.5144584587846927  0.9882269097708530  
  0.1413572978551378  0.5609939480159815  0.9586505087677218  
  0.1368577290001806  0.7576348950017824  0.0685049199130711  
