H    Li   C    N    O    V   Mg         
   1.00000000000000     
     7.2764470055405477   -0.9772816515742618    0.5309232697326314
    -0.2889875272989048    7.4209212487830856   -0.0320577332878092
     0.1041027986626820   -0.0482541034944858    6.9249373377502970
   H    Li   C    N    O    V    Mg
    14     1    10     6     2     1     1
Selective dynamics
Direct
  0.5217101239313423  0.9471799034992971  0.7357418833328327   T   T   T
  0.2706054425419782  0.0084361694098593  0.2510555127814321   T   T   T
  0.4188385673015674  0.2213584400991632  0.2728251111356894   T   T   T
  0.2229204178828033  0.1600922612544787  0.4461261010240076   T   T   T
  0.6761586494243754  0.0179138770733569  0.2772237983076986   T   T   T
  0.5073630068342104  0.8129636537643293  0.2873637281164641   T   T   T
  0.6505576549913982 -0.1371751626812733  0.4814557657631573   T   T   T
  0.3110356924997481  0.4794380041397515  0.5009213404026793   T   T   T
  0.5765853947063202  0.5128638940422018  0.9969462200286657   T   T   T
  0.6694638920920197  0.7178055803953135  0.8670640574102007   T   T   T
  0.7210392379557989  0.5063902020481198  0.7771121699480383   T   T   T
  0.2718828574997690  0.6353294986190557  0.9683398744859625   T   T   T
  0.2487163311620413  0.3926641949203404  0.9455864913959146   T   T   T
  0.1576433697243101  0.5224006653906563  0.7740124212895236   T   T   T
  0.9432623292994400  0.8947422168699012  0.3641108721290746   T   T   T
  0.9639744678311035  0.7940600546970153  0.0653557492460815   T   T   T
  0.9023761478803023  0.1775443515883737  0.6706735398223533   T   T   T
  0.0115869433322882  0.7971268847948915  0.6465753615280666   T   T   T
 -0.0087423300424389  0.2060808669837355  0.0969264186031614   T   T   T
  0.4247494107091931  0.0221921029597264  0.6709438619323219   T   T   T
  0.3320952818213975  0.1081269217955481  0.3561548373889890   T   T   T
  0.5775872542284988  0.9238673092830059  0.3744480322574320   T   T   T
  0.4476050427189889  0.5066849731115131  0.5574222226026855   T   T   T
  0.6121648278589313  0.5712751511138751  0.8511861242547872   T   T   T
  0.2715159462428224  0.5223713344721357  0.8648138551254443   T   T   T
  0.9039536028639701  0.6722406952613846  0.1781371266994726   T   T   T
  0.8608687608171686  0.2911824641307612  0.5725744754805209   T   T   T
  0.9650603770072967  0.6716431305956527  0.5402612467990073   T   T   T
  0.9663482252724636  0.3298636377816893  0.2017388379847473   T   T   T
  0.4434057444990893  0.0210119217493576  0.4771748891025548   T   T   T
  0.4474229269666578  0.5428311269411192  0.7469672732703042   T   T   T
  0.3141347196964269  0.0998537265508844  0.7763561515693933   T   T   T
  0.5926551113028390  0.5079378005623009  0.4410213192787546   T   T   T
  0.8463368464072623  0.4840877619147174  0.3808278004539982   T   T   T
  0.0383927247386152  0.0156213848677619  0.8608735290485893   T   T   T
 
  0.00000000E+00  0.00000000E+00  0.00000000E+00
  0.00000000E+00  0.00000000E+00  0.00000000E+00
  0.00000000E+00  0.00000000E+00  0.00000000E+00
  0.00000000E+00  0.00000000E+00  0.00000000E+00
  0.00000000E+00  0.00000000E+00  0.00000000E+00
  0.00000000E+00  0.00000000E+00  0.00000000E+00
  0.00000000E+00  0.00000000E+00  0.00000000E+00
  0.00000000E+00  0.00000000E+00  0.00000000E+00
  0.00000000E+00  0.00000000E+00  0.00000000E+00
  0.00000000E+00  0.00000000E+00  0.00000000E+00
  0.00000000E+00  0.00000000E+00  0.00000000E+00
  0.00000000E+00  0.00000000E+00  0.00000000E+00
  0.00000000E+00  0.00000000E+00  0.00000000E+00
  0.00000000E+00  0.00000000E+00  0.00000000E+00
  0.00000000E+00  0.00000000E+00  0.00000000E+00
  0.00000000E+00  0.00000000E+00  0.00000000E+00
  0.00000000E+00  0.00000000E+00  0.00000000E+00
  0.00000000E+00  0.00000000E+00  0.00000000E+00
  0.00000000E+00  0.00000000E+00  0.00000000E+00
  0.00000000E+00  0.00000000E+00  0.00000000E+00
  0.00000000E+00  0.00000000E+00  0.00000000E+00
  0.00000000E+00  0.00000000E+00  0.00000000E+00
  0.00000000E+00  0.00000000E+00  0.00000000E+00
  0.00000000E+00  0.00000000E+00  0.00000000E+00
  0.00000000E+00  0.00000000E+00  0.00000000E+00
  0.00000000E+00  0.00000000E+00  0.00000000E+00
  0.00000000E+00  0.00000000E+00  0.00000000E+00
  0.00000000E+00  0.00000000E+00  0.00000000E+00
  0.00000000E+00  0.00000000E+00  0.00000000E+00
  0.00000000E+00  0.00000000E+00  0.00000000E+00
  0.00000000E+00  0.00000000E+00  0.00000000E+00
  0.00000000E+00  0.00000000E+00  0.00000000E+00
  0.00000000E+00  0.00000000E+00  0.00000000E+00
  0.00000000E+00  0.00000000E+00  0.00000000E+00
  0.00000000E+00  0.00000000E+00  0.00000000E+00
