N    C    H    Pb   Pt   O    Li        
   1.00000000000000     
    14.9143374149127066    0.3230198293389220   -1.4142666596563700
     0.2477152016049025    7.3448548689335214    0.0704452599212803
    -2.5115884434178088    0.0693909764117608    7.3196965589383955
   N    C    H    Pb   Pt   O    Li
    12    20    40     2     2     4     1
Direct
  0.4615431540801409  0.2221319202048954  0.7653310787422364
  0.5428068002219071  0.7816644420608508  0.2364237224862025
  0.5397394118264518  0.2151461711610879  0.2318914129172990
  0.4660646827076207  0.7866184478242683  0.7699784918340566
  0.9400767610456887  0.7235472416835453  0.7645236084936391
  0.0700110844977567  0.2690184375313628  0.3171951049878425
  0.0490564440521699  0.7141651658368402  0.2147569120344395
  0.9402978870505871  0.2808837947313316  0.7006110126395377
  0.2673735596970448  0.0130997561417707  0.1974383244054236
  0.7335178255935504  0.0021738517783240  0.8052698908571128
  0.7587288527003776  0.5025979167072767  0.2148082469121989
  0.2444524193582936  0.5017247862003293  0.7860058490546624
  0.4788560633137666  0.3196522788351429  0.6624954857735750
  0.5236283257126271  0.6828479278194036  0.3357609546460184
  0.5227779183900618  0.3165116777510980  0.3340604566599160
  0.4802598048501072  0.6846148144899289  0.6654236691207791
  0.9535575465433643  0.7903170043062838  0.6380296648453632
  0.0377897120586743  0.1459392447950499  0.3656269320452198
  0.0220727891055423  0.7788302333608612  0.3259163518141353
  0.9640498769901955  0.1572193036177129  0.6299187986948085
  0.3501817375718977  0.0164256958296183  0.1646088854466850
  0.6514353954237299  0.9972041278750680  0.8323168945936362
  0.8423887815834243  0.5047215908183518  0.1934982677057194
  0.1597137111004142  0.5180902497579930  0.8019675877430036
  0.2760227756604247  1.0013159900601727  0.3940028214264534
  0.7308496147775729  0.0022317467911223  0.6141006585446143
  0.7584517074969879  0.5037734659268986  0.4026399308985706
  0.2459472219717611  0.4919237399051815  0.5993017482528417
  0.1735149652361936  0.0255750563623576  0.0577154530912945
  0.8263723765285348  0.0018067274083918  0.9581288584615356
  0.6679892211298682  0.5014084683343448  0.0568359291395623
  0.3344835909498438  0.5075698914332237  0.9457861363793213
  0.2406069529377794  0.8804873838960883  0.4122396219750686
  0.7672289281749300  0.1203440724548991  0.5929329646468140
  0.7693504086700487  0.8772738498161328  0.5971257756093026
  0.2382078983536358  0.1230223351144417  0.4198825793768991
  0.7227894266732684  0.3846253992738539  0.4234911093867691
  0.2825012425656680  0.6092447612660153  0.5770260209800245
  0.2857529210045843  0.3660723834436473  0.5893762083318769
  0.7183237086550183  0.6277100648097278  0.4166681235343274
  0.1749384579423257  0.8415662404007472  0.6446035319653947
  0.8191244057775178  0.1668722117096292  0.3331561120706146
  0.8159229101749650  0.8297883596918678  0.3388959522895570
  0.1733426870324091  0.1789674575441930  0.6604694335786316
  0.6764668834480825  0.3470948322890380  0.6793976527850659
  0.3274220395527580  0.6596444823260837  0.3282389765053809
  0.3273792771361777  0.3434325599188102  0.3326034337385865
  0.6745299101541804  0.6697492552862047  0.6695724456907874
  0.2180261076943870  0.1509625979552521  0.7482031571331967
  0.7709706673548395  0.8551879675805916  0.2501875906507162
  0.7750194649802464  0.1474744717477291  0.2449590474276797
  0.2228593100768593  0.8567903268882120  0.7275336268013192
  0.7220620885384502  0.6518266743527354  0.7549377279881130
  0.2786258074403214  0.3551476821299097  0.2491376485797211
  0.2788301242732342  0.6561154875050093  0.2444575743768103
  0.7260585474395996  0.3524706578343507  0.7600311347404320
  0.1511131801351615  0.1240188877071437  0.9368863747700196
  0.8629847720277499  0.8722469252778264  0.0259854166457680
  0.8602204809375396  0.1315870551303462  0.9952377256846923
  0.1209172413285296  0.9579815255742883  0.0997516626371702
  0.6346215592956093  0.6289225707701155  0.9804424294693052
  0.3739361928067884  0.3792553695856779  0.0099182108854302
  0.3611184535961410  0.6396969890046479 -0.0029594184472142
  0.6325286102598834  0.3736087897589533  0.0227377913288750
  0.3532510096573550  0.9911390108711243  0.4934270731939491
  0.6545475446683948  0.0099794189451986  0.5096773993392684
  0.8341876508180337  0.4971105138878734  0.5087427831656868
  0.1703408173132501  0.4971356755533717  0.4923086568265401
  0.4192008958065985  0.0124825189967994  0.2939239116208214
  0.5838218305350522  0.9962778044730264  0.7035081622487311
  0.9089485129297057  0.5040486759823193  0.3251065115069521
  0.0939834725752152  0.5017143206701432  0.6719031465604320
  0.5002402817173984  0.0007469868945324 -0.0002268228171078
  0.0008181121773642  0.4401718084057507  0.0081345356539127
  0.5012604135009356  0.5011994046781292  0.4991511223283072
  0.9920713154329908  0.9598869188478361  0.4865111926245920
  0.3478044679749245  0.0176905541997147  0.9953088437103009
  0.6516696852473870  0.9954766188684454  0.0002907893577775
  0.8454404088839956  0.5049850573224092  0.0315393751117241
  0.1533685170125542  0.5518158714036110  0.9590774521059665
  0.0822648583815709  0.7716548341888109  0.9267291013814780
 
             NaN             NaN             NaN
             NaN             NaN             NaN
             NaN             NaN             NaN
             NaN             NaN             NaN
             NaN             NaN             NaN
             NaN             NaN             NaN
             NaN             NaN             NaN
             NaN             NaN             NaN
             NaN             NaN             NaN
             NaN             NaN             NaN
             NaN             NaN             NaN
             NaN             NaN             NaN
             NaN             NaN             NaN
             NaN             NaN             NaN
             NaN             NaN             NaN
             NaN             NaN             NaN
             NaN             NaN             NaN
             NaN             NaN             NaN
             NaN             NaN             NaN
             NaN             NaN             NaN
             NaN             NaN             NaN
             NaN             NaN             NaN
             NaN             NaN             NaN
             NaN             NaN             NaN
             NaN             NaN             NaN
             NaN             NaN             NaN
             NaN             NaN             NaN
             NaN             NaN             NaN
             NaN             NaN             NaN
             NaN             NaN             NaN
             NaN             NaN             NaN
             NaN             NaN             NaN
             NaN             NaN             NaN
             NaN             NaN             NaN
             NaN             NaN             NaN
             NaN             NaN             NaN
             NaN             NaN             NaN
             NaN             NaN             NaN
             NaN             NaN             NaN
             NaN             NaN             NaN
             NaN             NaN             NaN
             NaN             NaN             NaN
             NaN             NaN             NaN
             NaN             NaN             NaN
             NaN             NaN             NaN
             NaN             NaN             NaN
             NaN             NaN             NaN
             NaN             NaN             NaN
             NaN             NaN             NaN
             NaN             NaN             NaN
             NaN             NaN             NaN
             NaN             NaN             NaN
             NaN             NaN             NaN
             NaN             NaN             NaN
             NaN             NaN             NaN
             NaN             NaN             NaN
             NaN             NaN             NaN
             NaN             NaN             NaN
             NaN             NaN             NaN
             NaN             NaN             NaN
             NaN             NaN             NaN
             NaN             NaN             NaN
             NaN             NaN             NaN
             NaN             NaN             NaN
             NaN             NaN             NaN
             NaN             NaN             NaN
             NaN             NaN             NaN
             NaN             NaN             NaN
             NaN             NaN             NaN
             NaN             NaN             NaN
             NaN             NaN             NaN
             NaN             NaN             NaN
             NaN             NaN             NaN
             NaN             NaN             NaN
             NaN             NaN             NaN
             NaN             NaN             NaN
             NaN             NaN             NaN
             NaN             NaN             NaN
             NaN             NaN             NaN
             NaN             NaN             NaN
             NaN             NaN             NaN
