H    Li   C    N    O    Ni   Mn        
   1.00000000000000     
     7.4650230922158078   -0.8094873606813637    0.5199314039839227
    -0.1120228002511488    7.1846743152491914   -0.0107249158094285
     0.2381168770144222   -0.0210908418039083    6.1839481592090966
   H    Li   C    N    O    Ni   Mn
    14     1    10     6     2     1     1
Selective dynamics
Direct
  0.5092212226343639  0.0029862861495647  0.8443150955671519   T   T   T
  0.3028252421048527 -0.0797400631615486  0.2710721548481027   T   T   T
  0.3968429941749297  0.1604926690085492  0.2624866887651619   T   T   T
  0.1955374466322970  0.0872251460220932  0.4333221205607050   T   T   T
  0.6882298696348553  0.0915084056212470  0.3655908826334137   T   T   T
  0.6049494071131142  0.8487704043495342  0.3598838484742651   T   T   T
  0.6908440184259820  0.9462376656756574  0.5971648643567341   T   T   T
  0.2461800368410026  0.6103006788338036  0.5796544221914164   T   T   T
  0.6073836044169163  0.3223921601056872  0.8280913113781927   T   T   T
  0.7262995683039766  0.5518969904744386  0.7794978024906649   T   T   T
  0.6693827876925634  0.4078070099890013  0.5578216216664161   T   T   T
  0.4540549085662418  0.6668463906948341  0.0240221277495187   T   T   T
  0.3454367672056978  0.4328284180989425  0.0443762889641853   T   T   T
  0.2365694935242768  0.6105797378549779  0.9308791811693465   T   T   T
  0.6483298774314238  0.4960066745559410  0.1755800080265287   T   T   T
  0.9182873640000039  0.8394628974262131  0.0279915667500028   T   T   T
  0.0041158381553909  0.2341160823543759  0.6195585303504088   T   T   T
 -0.0029799881757574  0.8467209004193492  0.6177964555870066   T   T   T
  0.9207241834805082  0.2173237112657966  0.0337818192044352   T   T   T
  0.3927082472408231  0.0244010462257018  0.7570568304782882   T   T   T
  0.3252755906133508  0.0472391246858667  0.3682397658035371   T   T   T
  0.6145021861005048  0.9735897016788866  0.4621495072507401   T   T   T
  0.3757982746189432  0.5542371325665095  0.5490273945671672   T   T   T
  0.6223893801054159  0.4475428342054493  0.7230471616026820   T   T   T
  0.3672163078837046  0.5600198232713413  0.9411201547597922   T   T   T
  0.8450132709081070  0.7033721000099074  0.1292556637211154   T   T   T
  0.0186124186993557  0.3596423327748215  0.4931805390559412   T   T   T
  0.0147561574955577  0.7251763911252632  0.4899804002771947   T   T   T
  0.8381839861815332  0.3275268850418281  0.1387081535233937   T   T   T
  0.4336769250320478  0.0152526438415491  0.5419395421387465   T   T   T
  0.4517256000964870  0.5215841790480666  0.7281431869898033   T   T   T
  0.2518406430156206  0.0522397441060053  0.8761682735471042   T   T   T
  0.4424974442120881  0.5275606877000868  0.3580170231924406   T   T   T
  0.9539226847524223  0.5319826078708388  0.3030130970945233   T   T   T
 -0.0130237591185750  0.0379146001094328  0.8346315152638751   T   T   T
 
  0.00000000E+00  0.00000000E+00  0.00000000E+00
  0.00000000E+00  0.00000000E+00  0.00000000E+00
  0.00000000E+00  0.00000000E+00  0.00000000E+00
  0.00000000E+00  0.00000000E+00  0.00000000E+00
  0.00000000E+00  0.00000000E+00  0.00000000E+00
  0.00000000E+00  0.00000000E+00  0.00000000E+00
  0.00000000E+00  0.00000000E+00  0.00000000E+00
  0.00000000E+00  0.00000000E+00  0.00000000E+00
  0.00000000E+00  0.00000000E+00  0.00000000E+00
  0.00000000E+00  0.00000000E+00  0.00000000E+00
  0.00000000E+00  0.00000000E+00  0.00000000E+00
  0.00000000E+00  0.00000000E+00  0.00000000E+00
  0.00000000E+00  0.00000000E+00  0.00000000E+00
  0.00000000E+00  0.00000000E+00  0.00000000E+00
  0.00000000E+00  0.00000000E+00  0.00000000E+00
  0.00000000E+00  0.00000000E+00  0.00000000E+00
  0.00000000E+00  0.00000000E+00  0.00000000E+00
  0.00000000E+00  0.00000000E+00  0.00000000E+00
  0.00000000E+00  0.00000000E+00  0.00000000E+00
  0.00000000E+00  0.00000000E+00  0.00000000E+00
  0.00000000E+00  0.00000000E+00  0.00000000E+00
  0.00000000E+00  0.00000000E+00  0.00000000E+00
  0.00000000E+00  0.00000000E+00  0.00000000E+00
  0.00000000E+00  0.00000000E+00  0.00000000E+00
  0.00000000E+00  0.00000000E+00  0.00000000E+00
  0.00000000E+00  0.00000000E+00  0.00000000E+00
  0.00000000E+00  0.00000000E+00  0.00000000E+00
  0.00000000E+00  0.00000000E+00  0.00000000E+00
  0.00000000E+00  0.00000000E+00  0.00000000E+00
  0.00000000E+00  0.00000000E+00  0.00000000E+00
  0.00000000E+00  0.00000000E+00  0.00000000E+00
  0.00000000E+00  0.00000000E+00  0.00000000E+00
  0.00000000E+00  0.00000000E+00  0.00000000E+00
  0.00000000E+00  0.00000000E+00  0.00000000E+00
  0.00000000E+00  0.00000000E+00  0.00000000E+00
