N    C    H    Ge   Cu   O    Li        
   1.00000000000000     
    15.5284074798970764    0.1079656755920470   -0.2588568286307020
     0.0815929938766837    7.7815081452617250   -0.0452583228047761
    -2.6482046854374639    0.0566418495741259    7.0044214693786282
   N    C    H    Ge   Cu   O    Li
    12    20    40     2     2     4     1
Direct
  0.4585256546511293  0.2215474653195869  0.7547351495977955
  0.5483001427090184  0.7864572702544859  0.2477756876966282
  0.5415186814728788  0.2155357220639730  0.2443309319004321
  0.4523159952596417  0.7863117499865510  0.7527491440024043
  0.9653230916557674  0.7323895029696202  0.7809925075583135
  0.0428924725905540  0.2531606562204658  0.2316991273065341
  0.0481221537701186  0.7450562824630126  0.2298700191114061
  0.9631870597714344  0.2822936893477724  0.7656104044753969
  0.2710958740304482  0.0017169662746811  0.2123032613053688
  0.7332064642954637  0.0005810258029006  0.7942901749147565
  0.7665840636338499  0.4984453926302740  0.2040233273375581
  0.2320510494341573  0.4999280815140234  0.7947520997038303
  0.4890334704416318  0.3233316300745293  0.6784383533396883
  0.5361842115712597  0.6808433587091819  0.3482024575327120
  0.5116585645294791  0.3213578184588914  0.3199020996068271
  0.4652525215239560  0.6822151361711483  0.6504839937323330
  0.9538428154244163  0.8232517711485583  0.6460494709153520
  0.0047672944492669  0.1721080122545015  0.3142564815284916
  0.0415426092738614  0.8231820253581084  0.3607155730680841
  0.9987385250091508  0.1748788018673455  0.7008538224773796
  0.3512941646361668  0.9922740359037587  0.1807734621312005
  0.6540895191530404  0.9941094601126024  0.8260680385083506
  0.8451773842997301  0.4993640272508698  0.1698061035371810
  0.1521927820944769  0.4965947484555840  0.8239623906204041
  0.2702751857117095  0.0098080630257319  0.4074980874216068
  0.7336484946819125  0.0030297310135481  0.5984223537797619
  0.7666412865279575  0.4991846311473028  0.4002076934306306
  0.2341522610086990  0.4982132902453336  0.6001752357485438
  0.1859674119022774  0.9963481645224189  0.0583089223930317
  0.8207820317999283  0.0011454629405206  0.9488108620552096
  0.6784262081248503  0.4978788114411757  0.0506250975529146
  0.3194747440831850  0.5008312271536871  0.9505225046989997
  0.2373068051787247  0.8931453828790537  0.4330848946796703
  0.7710554212744319  0.1166221822511654  0.5806650740476320
  0.7695020922617787  0.8863468548070129  0.5760910878778752
  0.2298222213189132  0.1234967563699882  0.4199211143241749
  0.7294390714301435  0.3859509531714344  0.4198131988085410
  0.2700325150305467  0.6129856563460545  0.5796756755562035
  0.2724279484400325  0.3824265921830090  0.5841693666647779
  0.7308602893620524  0.6165350123702312  0.4211084636495213
  0.1632095754518542  0.8310022685032076  0.6436479870263417
  0.8378373190735140  0.1704301652928792  0.3579528067184179
  0.8338511712575215  0.8306299854116009  0.3461134101783293
  0.1636057381081118  0.1714910924553109  0.6388159817833510
  0.6619941419843186  0.3268573602984197  0.6395334132326371
  0.3367628051491633  0.6721501642529160  0.3518851948623783
  0.3392853912910646  0.3278693035026199  0.3603314280382960
  0.6631186523481726  0.6733513094171291  0.6473857452840598
  0.2031285123344115  0.1456028981575091  0.7294111206186679
  0.7913863529876709  0.8482648000074168  0.2571544364708788
  0.7952551373382128  0.1433001954611179  0.2752382806897010
  0.2079676037243686  0.8482803518119520  0.7265149176033305
  0.7025133756616824  0.6465833653432517  0.7380811999934612
  0.2982419703471942  0.3566899846711594  0.2738951959925525
  0.2986799256053333  0.6452303517054047  0.2601392192714785
  0.7008350130700121  0.3577684356291619  0.7275664946797856
  0.1381444045699967  0.1068498025929566  0.0363677284447975
  0.8503863642419927  0.8787541363096635  1.0181321707271649
  0.8570837712852661  0.1230950000835726  0.9870032729033370
  0.1775060767945928  0.8984684168982631 -0.0508668067991587
  0.6443930327111504  0.6215738945213362 -0.0041795326186223
  0.3536318655848298  0.3773366015905737  1.0062408251644002
  0.3567006088322766  0.6222151093634671  0.9847439865575265
  0.6418545615057876  0.3761729110434567  0.0138069286959421
  0.3415129211910156  0.0168003419116481  0.5135220175203761
  0.6622144846205499  0.0076036718544991  0.4920363829683402
  0.8381611672837606  0.4947497054777723  0.5064404974367389
  0.1631816399826958  0.4973091810810584  0.4917406913598490
  0.4152055823118936  0.9928098521418892  0.3112390517447283
  0.5901466021113417  0.9931631809035282  0.6955335699820466
  0.9096335916334131  0.5019324297309288  0.2996369673924248
  0.0888854244646395  0.4962975854147409  0.6920390358207983
  0.5033413434155671  0.9993722210732435  1.0007555164549107
  1.0001408356449648  0.4773338605827208  1.0032761378847810
  0.5010078349009051  0.5030124440854851  0.4994258908311205
  0.9970923004149179 -0.0014886720747565  0.5033273634368710
  0.3532133948230431  0.9870688485633344  1.0140858124002325
  0.6509423488312743  0.9901162552176398 -0.0071022082550688
  0.8473825617557563  0.4966213633239752  1.0023069231698165
  0.1476170502643046  0.4955571327735778 -0.0104965566811948
  0.0372484764033230  0.8944574926301536  0.0006154853810142
 
             NaN             NaN             NaN
             NaN             NaN             NaN
             NaN             NaN             NaN
             NaN             NaN             NaN
             NaN             NaN             NaN
             NaN             NaN             NaN
             NaN             NaN             NaN
             NaN             NaN             NaN
             NaN             NaN             NaN
             NaN             NaN             NaN
             NaN             NaN             NaN
             NaN             NaN             NaN
             NaN             NaN             NaN
             NaN             NaN             NaN
             NaN             NaN             NaN
             NaN             NaN             NaN
             NaN             NaN             NaN
             NaN             NaN             NaN
             NaN             NaN             NaN
             NaN             NaN             NaN
             NaN             NaN             NaN
             NaN             NaN             NaN
             NaN             NaN             NaN
             NaN             NaN             NaN
             NaN             NaN             NaN
             NaN             NaN             NaN
             NaN             NaN             NaN
             NaN             NaN             NaN
             NaN             NaN             NaN
             NaN             NaN             NaN
             NaN             NaN             NaN
             NaN             NaN             NaN
             NaN             NaN             NaN
             NaN             NaN             NaN
             NaN             NaN             NaN
             NaN             NaN             NaN
             NaN             NaN             NaN
             NaN             NaN             NaN
             NaN             NaN             NaN
             NaN             NaN             NaN
             NaN             NaN             NaN
             NaN             NaN             NaN
             NaN             NaN             NaN
             NaN             NaN             NaN
             NaN             NaN             NaN
             NaN             NaN             NaN
             NaN             NaN             NaN
             NaN             NaN             NaN
             NaN             NaN             NaN
             NaN             NaN             NaN
             NaN             NaN             NaN
             NaN             NaN             NaN
             NaN             NaN             NaN
             NaN             NaN             NaN
             NaN             NaN             NaN
             NaN             NaN             NaN
             NaN             NaN             NaN
             NaN             NaN             NaN
             NaN             NaN             NaN
             NaN             NaN             NaN
             NaN             NaN             NaN
             NaN             NaN             NaN
             NaN             NaN             NaN
             NaN             NaN             NaN
             NaN             NaN             NaN
             NaN             NaN             NaN
             NaN             NaN             NaN
             NaN             NaN             NaN
             NaN             NaN             NaN
             NaN             NaN             NaN
             NaN             NaN             NaN
             NaN             NaN             NaN
             NaN             NaN             NaN
             NaN             NaN             NaN
             NaN             NaN             NaN
             NaN             NaN             NaN
             NaN             NaN             NaN
             NaN             NaN             NaN
             NaN             NaN             NaN
             NaN             NaN             NaN
             NaN             NaN             NaN
