N    C    H    Ag   Cd   O    Li        
   1.00000000000000     
    17.8594881314549987   -0.1706312776822880    1.1453224811648801
    -0.2369109781548879    8.5851874652006170    0.9174038999828870
    -1.6068751649938005    0.8008826249183921    7.9246625336612055
   N    C    H    Ag   Cd   O    Li
    12    20    40     2     2     4     1
Direct
  0.4576372069222466  0.1737662873995049  0.7427337476119953
  0.4696603730676510  0.7926383021443503  0.1329142651524467
  0.6149103719964777  0.2972341733250997  0.3080554934736140
  0.5091709113503191  0.7701965363290206  0.7417850974755820
  0.0124006502047766  0.7840648492420809  0.6476224268652286
  0.0351570629542715  0.3354591048583682  0.1340618527807611
  1.0004452518947178  0.7235029645058607  0.1633923693477277
  0.9360408266178719  0.2267378748012882  0.6471059146142513
  0.2902629819358103  0.0431714164041016  0.2454523290237781
  0.7291185194221260  0.9714785696805183  0.8087605489631986
  0.7877791687726023  0.4968374577014196  0.1488700720248367
  0.2496624350443665  0.5362356885467430  0.8555035534353886
  0.4543085288521466  0.2934641518427753  0.6431699234290963
  0.4657475907226280  0.6881379521389995  0.2489060837038578
  0.5833045727996538  0.3755583243007778  0.3785145936406839
  0.5152118664220107  0.6732871898899987  0.6624638497328603
  0.9935288612004247  0.6580387908654182  0.7146360618504906
  0.0319730558306427  0.2107094521948482  0.2237279612586997
  0.9825777151017399  0.8146913912947082  0.2390823231130038
  0.9404392192040134  0.1379214846983015  0.5577647029068485
  0.3165282773943706  0.0783996835110491  0.0874739830808488
  0.6999457478820317  0.8312329889818899  0.8745993381297166
  0.8391734973349489  0.4265483157189904  0.0784456040848578
  0.1767326742924159  0.5321703239787278  0.8913954847084750
  0.3450445110657146  0.0062731284502756  0.3991412728683245
  0.6839113344225284  0.0691528644003107  0.6598948737302718
  0.8027849942852525  0.5172095512476499  0.3241421851341717
  0.2664806645584015  0.4592199250525663  0.7196820585940507
  0.2158392302882460  0.0436890959203084  0.2560163306073955
  0.7978334784407856  0.0235801162023991  0.8654061764598757
  0.7222208305796727  0.5723629452921863  0.0508907025920465
  0.3062769781457119  0.6064897448851841  0.9426984328353228
  0.3353946129194451  0.8861137716073689  0.4693842584907019
  0.6881599844641095  0.1928812458753814  0.6712549987367215
  0.7059349909858946  0.0556350683698349  0.5443791022333860
  0.3399972995059931  0.0906595746609657  0.4809055469339475
  0.7540346544928550  0.4737833390821601  0.3887732969097479
  0.3033104898806109  0.5364081049796561  0.6409636335722381
  0.2939580994662014  0.3447966549669937  0.7738222401563934
  0.8125418869085449  0.6426000221066500  0.3287781776427686
  0.1749596267990536  0.8633151696263612  0.6387693628723636
  0.7367322306423811  0.0767404274016013  0.1883976303952237
  0.8301460436912577  0.8557322439355779  0.5566357851385140
  0.1029278281942761  0.1658944780869654  0.7411510400283127
  0.6179773546214166  0.3333872885622607  0.8398796515194915
  0.2664068384940122  0.6837921796193798  0.3498873734647681
  0.3043213718359168  0.3639831254200928  0.3618127645077636
  0.6879112819834331  0.6156857027082828  0.5751418659104981
  0.1427103547052422  0.1455289900279249  0.7813633783903284
  0.8018320554336926  0.8757421589165253  0.4783158691323139
  0.7048193037709396  0.1198360892277170  0.2112464738560433
  0.2075974674218913  0.9031413944382929  0.6826456886465040
  0.7248855268414969  0.6067586537632068  0.6321457873792846
  0.2651604225651395  0.3671546628436059  0.3145096617510684
  0.2327833325164264  0.6847422319607586  0.2835244415786615
  0.6598550331505754  0.3267202533740846  0.8641893821108004
  0.1772876005787083  0.0712323451294180  0.1388589716154148
  0.8332766959422928  0.9462785045284871  0.9662116682695663
  0.8156998199801054  0.1400906372727818  0.8052397128238520
  0.1977029933859329  0.0170081770669824  0.3807503863498223
  0.7066124752482731  0.5271392273030623  0.9349018605910495
  0.3627433751969484  0.6051257093802457  0.9086582220583517
  0.2926088734892338  0.6603830608832734  0.0439472009281387
  0.6754973565776052  0.5602617619020098  0.1278028062841329
  0.4021255069533017  0.0130916037289666  0.3636692878902029
  0.6248773694320446  0.0315962563730650  0.6547332657306157
  0.8531755825174376  0.4503182782467038  0.3882939807933156
  0.2137261828079603  0.4398675115542968  0.6409338145680639
  0.3787617023014551  0.0762712765436894  0.0979957904457395
  0.6442807489809548  0.7954898427815165  0.8217609397562922
  0.8875607933198725  0.3769379300912247  0.1726537742144981
  0.1375748453639975  0.4710930837762330  0.8089787201378555
  0.4734720384139131  0.9537596231302456  0.9040711002239497
  0.9560685019662772  0.4285421297201299  0.7550239366996794
  0.5029734104993273  0.5062369853424149  0.4832552940388618
  0.9875945014328678  0.9921530386777524  0.3998849588684180
  0.2741577044082503  0.1078455309020941  0.9523388231540855
  0.7418272548373794  0.7421216571480838  0.0042293039275785
  0.8335365511390043  0.4157852171627607  0.9277059770435618
  0.1564459566945283  0.5917611975456644  1.0057317859146848
  0.0549353920858153  0.5724590666012366  0.0618390957040160
 
             NaN             NaN             NaN
             NaN             NaN             NaN
             NaN             NaN             NaN
             NaN             NaN             NaN
             NaN             NaN             NaN
             NaN             NaN             NaN
             NaN             NaN             NaN
             NaN             NaN             NaN
             NaN             NaN             NaN
             NaN             NaN             NaN
             NaN             NaN             NaN
             NaN             NaN             NaN
             NaN             NaN             NaN
             NaN             NaN             NaN
             NaN             NaN             NaN
             NaN             NaN             NaN
             NaN             NaN             NaN
             NaN             NaN             NaN
             NaN             NaN             NaN
             NaN             NaN             NaN
             NaN             NaN             NaN
             NaN             NaN             NaN
             NaN             NaN             NaN
             NaN             NaN             NaN
             NaN             NaN             NaN
             NaN             NaN             NaN
             NaN             NaN             NaN
             NaN             NaN             NaN
             NaN             NaN             NaN
             NaN             NaN             NaN
             NaN             NaN             NaN
             NaN             NaN             NaN
             NaN             NaN             NaN
             NaN             NaN             NaN
             NaN             NaN             NaN
             NaN             NaN             NaN
             NaN             NaN             NaN
             NaN             NaN             NaN
             NaN             NaN             NaN
             NaN             NaN             NaN
             NaN             NaN             NaN
             NaN             NaN             NaN
             NaN             NaN             NaN
             NaN             NaN             NaN
             NaN             NaN             NaN
             NaN             NaN             NaN
             NaN             NaN             NaN
             NaN             NaN             NaN
             NaN             NaN             NaN
             NaN             NaN             NaN
             NaN             NaN             NaN
             NaN             NaN             NaN
             NaN             NaN             NaN
             NaN             NaN             NaN
             NaN             NaN             NaN
             NaN             NaN             NaN
             NaN             NaN             NaN
             NaN             NaN             NaN
             NaN             NaN             NaN
             NaN             NaN             NaN
             NaN             NaN             NaN
             NaN             NaN             NaN
             NaN             NaN             NaN
             NaN             NaN             NaN
             NaN             NaN             NaN
             NaN             NaN             NaN
             NaN             NaN             NaN
             NaN             NaN             NaN
             NaN             NaN             NaN
             NaN             NaN             NaN
             NaN             NaN             NaN
             NaN             NaN             NaN
             NaN             NaN             NaN
             NaN             NaN             NaN
             NaN             NaN             NaN
             NaN             NaN             NaN
             NaN             NaN             NaN
             NaN             NaN             NaN
             NaN             NaN             NaN
             NaN             NaN             NaN
             NaN             NaN             NaN
