H    Li   C    N    O    Co   Zn        
   1.00000000000000     
     7.7002431448637738   -1.3174981137034403    0.4998516124222222
    -0.6764923187379247    7.1491165577876217    0.0990307763855530
     0.0923922342010577    0.0774423503640745    6.8519695172212973
   H    Li   C    N    O    Co   Zn
    14     1    10     6     2     1     1
Selective dynamics
Direct
  0.5545885421493425  0.0110519676194853  0.7080420098885217   T   T   T
  0.2330330794313556 -0.0117859809839724  0.2685536143733570   T   T   T
  0.3530369698710611  0.2352929379392397  0.2719381893418815   T   T   T
  0.1905919678426143  0.1306275596857323  0.4679136660556675   T   T   T
  0.6343675210067045  0.1410265221870863  0.2409347142649032   T   T   T
  0.5215455735685909  0.8889372454013119  0.2500476923333599   T   T   T
  0.6767444860975026 -0.0127002142010837  0.4265058927133113   T   T   T
  0.2835177015945564  0.5873786927691642  0.5543131915031951   T   T   T
  0.5645170628715215  0.4044684159750978  0.9591576266458783   T   T   T
  0.6943861951062084  0.6382383160130000  0.8746134228860114   T   T   T
  0.6668228327742648  0.4428239333164589  0.7140583405663739   T   T   T
  0.3661037852969686  0.7354287142070213  0.9675321650931936   T   T   T
  0.3043874149524688  0.4860604905239037  0.0461956104025354   T   T   T
  0.1873214243040375  0.5704105594734513  0.8654686688244013   T   T   T
  0.7623354446065130  0.6523477567383196  0.3735955949221800   T   T   T
  0.9437169258728979  0.7413890177161796  0.0639699462738306   T   T   T
  0.8970093392915512  0.1316849345340667  0.6802560029402794   T   T   T
  0.0151261109357052  0.7671417146588542  0.6422790112515635   T   T   T
  0.0295683752699150  0.1675933150911630  0.0663195598778589   T   T   T
  0.4326785950363094  0.0438924703177509  0.6616772538052801   T   T   T
  0.2929679162185704  0.1036814312714202  0.3640036885971975   T   T   T
  0.5734561799695757  0.0136685372128311  0.3386478624570481   T   T   T
  0.4146114007963238  0.5661797688970254  0.5798358512643530   T   T   T
  0.6009417968724097  0.5061376762460069  0.8313585826227785   T   T   T
  0.3178456633583348  0.5869532704891762  0.9202099415499593   T   T   T
 -0.0352860443984912  0.6209107029236675  0.1741151687102248   T   T   T
  0.9302922425899305  0.2602502616038428  0.5610316389979607   T   T   T
 -0.0141614560168055  0.6343813087315766  0.5396568971029487   T   T   T
 -0.0074627728347066  0.2695391960524841  0.1847984904231971   T   T   T
  0.4295460245651539  0.0498587026730946  0.4660372954476311   T   T   T
  0.4411247837222169  0.5460565837105062  0.7682591517042283   T   T   T
  0.3182759840039996  0.0737343961450888  0.7860525548418058   T   T   T
  0.5256507630185513  0.5621877741067346  0.4383763266135059   T   T   T
  0.9694019964736633  0.4447326845800048  0.3656439374496277   T   T   T
  0.0126711737811787 -0.0315736636256888  0.8549184382539528   T   T   T
 
  0.00000000E+00  0.00000000E+00  0.00000000E+00
  0.00000000E+00  0.00000000E+00  0.00000000E+00
  0.00000000E+00  0.00000000E+00  0.00000000E+00
  0.00000000E+00  0.00000000E+00  0.00000000E+00
  0.00000000E+00  0.00000000E+00  0.00000000E+00
  0.00000000E+00  0.00000000E+00  0.00000000E+00
  0.00000000E+00  0.00000000E+00  0.00000000E+00
  0.00000000E+00  0.00000000E+00  0.00000000E+00
  0.00000000E+00  0.00000000E+00  0.00000000E+00
  0.00000000E+00  0.00000000E+00  0.00000000E+00
  0.00000000E+00  0.00000000E+00  0.00000000E+00
  0.00000000E+00  0.00000000E+00  0.00000000E+00
  0.00000000E+00  0.00000000E+00  0.00000000E+00
  0.00000000E+00  0.00000000E+00  0.00000000E+00
  0.00000000E+00  0.00000000E+00  0.00000000E+00
  0.00000000E+00  0.00000000E+00  0.00000000E+00
  0.00000000E+00  0.00000000E+00  0.00000000E+00
  0.00000000E+00  0.00000000E+00  0.00000000E+00
  0.00000000E+00  0.00000000E+00  0.00000000E+00
  0.00000000E+00  0.00000000E+00  0.00000000E+00
  0.00000000E+00  0.00000000E+00  0.00000000E+00
  0.00000000E+00  0.00000000E+00  0.00000000E+00
  0.00000000E+00  0.00000000E+00  0.00000000E+00
  0.00000000E+00  0.00000000E+00  0.00000000E+00
  0.00000000E+00  0.00000000E+00  0.00000000E+00
  0.00000000E+00  0.00000000E+00  0.00000000E+00
  0.00000000E+00  0.00000000E+00  0.00000000E+00
  0.00000000E+00  0.00000000E+00  0.00000000E+00
  0.00000000E+00  0.00000000E+00  0.00000000E+00
  0.00000000E+00  0.00000000E+00  0.00000000E+00
  0.00000000E+00  0.00000000E+00  0.00000000E+00
  0.00000000E+00  0.00000000E+00  0.00000000E+00
  0.00000000E+00  0.00000000E+00  0.00000000E+00
  0.00000000E+00  0.00000000E+00  0.00000000E+00
  0.00000000E+00  0.00000000E+00  0.00000000E+00
