N    C    H    Ni   Pd   O    Li        
   1.00000000000000     
    18.3013433426980221   -0.2820607243417460    1.9732283871086500
     0.1800810325702937    7.7507841748560073    0.3901896485389490
    -1.7817760278389250    0.8265240341510178    7.1390654392548925
   N    C    H    Ni   Pd   O    Li
    12    20    40     2     2     4     1
Direct
  0.4802474645578680  0.1937706900990610  0.7805136239124318
  0.5127161783022457  0.7981871491587258  0.1509152499867978
  0.5305841891288804  0.1829122062452909  0.1851667412928172
  0.4451205351205628  0.7433415549559708  0.6514893053123570
  0.9804958595921038  0.6198823058347587  0.7898640654593789
  0.9830569956547405  0.2501172859850418  0.1591165800752431
  0.0409087536997449  0.7251682193951655  0.2339727842200036
  0.9710711483934646  0.2415345496632280  0.7645998876238751
  0.3120631984935736  0.0530854146649987  0.2623086240148980
  0.6852595480510213 -0.0394369195391938  0.7108536545621879
  0.8036447107882742  0.5771676616844185  0.2432384457764811
  0.2587610336414306  0.4849128865150650  0.8570565551634549
  0.4827481182199082  0.2866666242584801  0.6426424010986651
  0.5084020921897126  0.6629548726398582  0.2401526747885272
  0.5211673890315121  0.2871858125619541  0.2777849520321324
  0.4643971718537031  0.6376350632379688  0.5707646033385680
  0.9902498721091897  0.7523016176055237  0.6987339624298307
  0.9932955509849990  0.1515740530333229  0.2966054549848881
  0.0240127989618913  0.8072599145835035  0.3412541767171253
  0.9790513016230783  0.1331613422628388  0.6754264997482532
  0.3790375480177182  1.0195412779463096  0.2130215546781718
  0.6180860009061623 -0.0276389299183451  0.7703617467651517
  0.8676168954754274  0.5258733582800121  0.1903365289643609
  0.1850416315520227  0.4747049007242587  0.8603530643131011
  0.3024035167573210  0.9934884757229403  0.4538815715960498
  0.6843792033881376  0.0050667964370436  0.5118176750405973
  0.7995127369721259  0.5449453249307893  0.4414779340066518
  0.2950794395559360  0.3799304325882628  0.7469059660095213
  0.2492301617431809  0.0924055033001744  0.1362043262691354
  0.7557734566048114  0.9416770903144991  0.8017534925495983
  0.7430566628292371  0.6331264115797017  0.1174676222759966
  0.3006615538567279  0.5788708475048140  0.9675764880996549
  0.2574983470972985  0.9040908408026349  0.4479373062685201
  0.7101057468319089  0.1300939938053556  0.4864229496344133
  0.7159623379353032  0.9064520625538581  0.4632271435997033
  0.2880908392570100  0.1005217578484983  0.5231064595645396
  0.7536756491146477  0.4613975100909141  0.4657375147818608
  0.3212731137143940  0.4625370372924317  0.6439010634468145
  0.3355764851567418  0.2920648434395050  0.8390421215030075
  0.7920194966141666  0.6641615024796228  0.4982781011087956
  0.1446856772190311  0.9564142584356516  0.6828194786064608
  0.7850792186390818  0.1756798928530557  0.1478329124288812
  0.8654148998369406  0.9207745097867557  0.3295172292232104
  0.1593772323442262  0.2892336631610535  0.3767459754742095
  0.6471489953457211  0.3772249169134916  0.8432029253525595
  0.2137699208611736  0.6031957142774669  0.3797448269308094
  0.3617068129636996  0.4162619961659144  0.3437286825529881
  0.6227673771008323  0.6399803240088786  0.5376721454777544
  0.1253228491725805  0.2433185496680483  0.3970363266769882
  0.8341001718496034  0.9020393343443600  0.2598170317803911
  0.7470352241538014  0.2114739883316438  0.1118442820805705
  0.1744904374183435  0.8998306252872036  0.7437521297813334
  0.6562143519823094  0.6321952802723936  0.6089531138632873
  0.3219647626830553  0.4069718587373954  0.3072637679639346
  0.1750898101152964  0.6239619588225250  0.3339721812524235
  0.6866797242538714  0.3488063808786920  0.8688229298892763
  0.1982196126479516  0.0363156469604115  0.1793122264113642
  0.7679672626528904  0.9353529594455754 -0.0529782163600093
  0.7983464568744372  0.9853153840758396  0.7055005558954416
  0.2467732837124759  0.0422530523649387  1.0059390151022400
  0.6936355464449082  0.6735299655855536  0.1649602864963505
  0.3594055739913209  0.5721364916290783  0.9691208038256562
  0.2738221186464719  0.6465672646243521  1.0579890028226095
  0.7403998976525933  0.5944325320281676  0.9841063502397756
  0.3522162864126032  0.9243111249164687  0.5297778805363910
  0.6288693207406247  0.0176627647967834  0.4373752032204454
  0.8499129890361813  0.4772239884606657  0.5158677180846141
  0.2542488920878543  0.3038521520853696  0.6766081628146757
  0.4174984876707412  0.9472647342504880  0.3270324196581909
  0.5725087270945357 -0.0045471732516025  0.6549796654138276
  0.9104715704090969  0.4754935560035805  0.3054011181249069
  0.1580609458118741  0.3866628519786131  0.7725535209538285
  0.5034810076381885  0.0255280618690944  1.0042331751581526
  0.9553405023434290  0.4032132926487325  0.9275296191765168
  0.4950426633696977  0.4626648270686974  0.4283476207583851
  0.9982474398894048  0.9618717490502787  0.5116328312812708
  0.3929312113534377  0.0562468751934062  0.0525295297931440
  0.6085168412942361 -0.0360769243433849  0.9343830051816254
  0.8753859786155134  0.5335782234845754  0.0245832588423536
  0.1522837772766742  0.5565753718221280  0.9581531424846363
  0.0650208187806174  0.6173286761473059  0.0283275811432116
 
             NaN             NaN             NaN
             NaN             NaN             NaN
             NaN             NaN             NaN
             NaN             NaN             NaN
             NaN             NaN             NaN
             NaN             NaN             NaN
             NaN             NaN             NaN
             NaN             NaN             NaN
             NaN             NaN             NaN
             NaN             NaN             NaN
             NaN             NaN             NaN
             NaN             NaN             NaN
             NaN             NaN             NaN
             NaN             NaN             NaN
             NaN             NaN             NaN
             NaN             NaN             NaN
             NaN             NaN             NaN
             NaN             NaN             NaN
             NaN             NaN             NaN
             NaN             NaN             NaN
             NaN             NaN             NaN
             NaN             NaN             NaN
             NaN             NaN             NaN
             NaN             NaN             NaN
             NaN             NaN             NaN
             NaN             NaN             NaN
             NaN             NaN             NaN
             NaN             NaN             NaN
             NaN             NaN             NaN
             NaN             NaN             NaN
             NaN             NaN             NaN
             NaN             NaN             NaN
             NaN             NaN             NaN
             NaN             NaN             NaN
             NaN             NaN             NaN
             NaN             NaN             NaN
             NaN             NaN             NaN
             NaN             NaN             NaN
             NaN             NaN             NaN
             NaN             NaN             NaN
             NaN             NaN             NaN
             NaN             NaN             NaN
             NaN             NaN             NaN
             NaN             NaN             NaN
             NaN             NaN             NaN
             NaN             NaN             NaN
             NaN             NaN             NaN
             NaN             NaN             NaN
             NaN             NaN             NaN
             NaN             NaN             NaN
             NaN             NaN             NaN
             NaN             NaN             NaN
             NaN             NaN             NaN
             NaN             NaN             NaN
             NaN             NaN             NaN
             NaN             NaN             NaN
             NaN             NaN             NaN
             NaN             NaN             NaN
             NaN             NaN             NaN
             NaN             NaN             NaN
             NaN             NaN             NaN
             NaN             NaN             NaN
             NaN             NaN             NaN
             NaN             NaN             NaN
             NaN             NaN             NaN
             NaN             NaN             NaN
             NaN             NaN             NaN
             NaN             NaN             NaN
             NaN             NaN             NaN
             NaN             NaN             NaN
             NaN             NaN             NaN
             NaN             NaN             NaN
             NaN             NaN             NaN
             NaN             NaN             NaN
             NaN             NaN             NaN
             NaN             NaN             NaN
             NaN             NaN             NaN
             NaN             NaN             NaN
             NaN             NaN             NaN
             NaN             NaN             NaN
             NaN             NaN             NaN
