N    C    H    Fe   Ni   O    Li
   1.00000000000000     
  17.1269417353868008   0.3002777660584570   0.2603991062167910
  -0.4585654947836910   6.9193051235572200   0.0240301710052857
  -0.8965008032199659  -0.0733674714004839   6.9820614159018604
N    C    H    Fe   Ni   O    Li
12  20  40  2  2  4  1  
Direct
  0.5022535108972203  0.1631924711818020  0.8077358372181194  
  0.4942495178495803  0.7754122887329243  0.1933642039068147  
  0.4966624618008301  0.1651565248695156  0.1919816436705286  
  0.5003360983204400  0.7744908130696536  0.8086128302582830  
  0.0011867305985596  0.7215211387572296  0.7803636579408697  
  0.9950426074479548  0.3359755382842705  0.1692756001067171  
  0.9951149759257458  0.7264786063515024  0.1645556144494419  
  0.0019847202484156  0.3314662939206656  0.7871209148865468  
  0.2600224444208581  0.9953929064251552  0.0559819617808307  
  0.7397989333898047  0.9945132018873014  0.9808870723205826  
  0.7546498192435674  0.4965956996553856  0.9905350132469756  
  0.2459716489731374  0.5113684421924334  0.0044142710776656  
  0.5035071452125619  0.2816599061694932  0.6885578794886249  
  0.4956001020102332  0.6575867629642729  0.3135966510490606  
  0.4976706301015291  0.2829696722230520  0.3121146053073297  
  0.5013984954769767  0.6569324449394566  0.6890448916396467  
  0.0003602169541023  0.8401498112693609  0.6600888787023709  
  0.9960712581574734  0.2185112301550163  0.2896340075691344  
  0.9958483417347684  0.8440789018087371  0.2852446989714926  
  0.0010355351569616  0.2151191697575429  0.6656929407030275  
  0.3381692275383181  0.9819698129857528  0.0837380986613781  
  0.6605608084631019  0.9839111801910096  0.9279077234324584  
  0.8337605849438201  0.5070951856308610  0.0434267676203468  
  0.1693844559832186  0.5178750877971358  0.9321441711725365  
  0.2185694090092947  0.0315751276914322  0.2210046556340011  
  0.7932030149468282  0.9995258257362536  0.8319088945963408  
  0.7007688015616138  0.4913193956078409  0.1392289956200676  
  0.3046097659672081  0.4839494082883393  0.8704295490445916  
  0.2106398727028716  0.9682205067826262  0.8794743226039945  
  0.7719561974646332  0.0009245570616171  0.1669958894611406  
  0.7226714260150946  0.4908147528638815  0.8046379767513514  
  0.2720040190209772  0.5355659304965767  0.1923039826833345  
  0.1808848097986969  0.9051477492780352  0.2525955023129186  
  0.8306426851246664  0.1328001732569170  0.8447205277967855  
  0.8306008387448996  0.8752015154656527  0.8470578910827795  
  0.1816882234710526  0.1559365284398609  0.1916736307482037  
  0.6634029528883416  0.3580311685278918  0.1255281740179353  
  0.3497775399341315  0.6018281527113957  0.8890629193486215  
  0.3316243577623915  0.3451152444067280  0.8977512866661027  
  0.6633792660035005  0.6155530247070414  0.1233776751331775  
  0.1329596766684744  0.6447758335208215  0.4587695276957439  
  0.8504626890864445  0.3186391398000056  0.5284139826378200  
  0.8475236375679175  0.6964560092286720  0.5280199910409372  
  0.1494848291687911  0.2786807286854108  0.5001154237199484  
  0.6434966291983035  0.1750812197796734  0.4481761976964877  
  0.3481629369704309  0.8385471584976046  0.5936750852380699  
  0.3514484316789991  0.2245787437141236  0.5686436898626868  
  0.6435049798903008  0.7865483379776671  0.4484577429085282  
  0.1843843710899312  0.2433852732727944  0.5622375423255054  
  0.8213349527631962  0.7387023955748842  0.4474125916240205  
  0.8195858137885937  0.2784014239425302  0.4527512710654604  
  0.1593978137674095  0.6995966923085687  0.5346499784052141  
  0.6791212927115818  0.7606847630673277  0.5139071847650797  
  0.3270726486931039  0.2822933109180794  0.4961223464046492  
  0.3270779100139965  0.7992131391350042  0.5015040446157967  
  0.6786320577860830  0.2086401273033665  0.5155414448673510  
  0.1746191080470054  0.0953189736873666  0.8518570919718876  
  0.8355333117451137  0.0113444309889650  0.1955608785112173  
  0.7324559546297197  0.9975051237124176  0.2768001737721237  
  0.2454219538615056  0.9436288577018508  0.7616784911570356  
  0.6590643546298945  0.4822093303207585  0.7752005445342787  
  0.3348481825408127  0.5335721942702970  0.2341248696545107  
  0.2290809492887890  0.5531802326945443  0.2919482698086598  
  0.7622034927332757  0.4942103403277042  0.6949163180387833  
  0.2602708444353979  0.0639038082055653  0.3473127322182142  
  0.7587043126071638  0.9943206059914640  0.6914790446198534  
  0.7349959690492534  0.4964576016950573  0.2799735260408628  
  0.2754988356833172  0.4864354875551571  0.7242835411176217  
  0.3646449516950676  0.9928942838714728  0.2326355513645310  
  0.6415935898991337  0.9797533635274440  0.7742748179214398  
  0.8524615125895988  0.5100405983771057  0.1971815460597305  
  0.1552747487548372  0.4830511299562876  0.7806631122146367  
  0.4978526685068668  0.9692815071027282  0.0000797677335926  
  0.9978015542410240  0.5268488303670951  0.9762917980646820  
  0.4999775708268128  0.4699196477520717  0.5009236748657028  
  0.9984723236681886  0.0291052676721731  0.4753619880942038  
  0.3804119588045434  0.9588073371114384  0.9477389034976720  
  0.6129850756893538  0.9796479298655628  0.0536258564871655  
  0.8818577906374988  0.5127289389014231  0.9182347784109992  
  0.1159172370821634  0.5518134238378298  0.0423982090426593  
  0.1047175534685752  0.8175544726643996  0.9531847156879414  
