N    C    H    Co   Zn   O    Li
   1.00000000000000     
  18.0588839637964007   0.2685207802933470   1.9310298090655300
   0.1690359724187360   7.8506323076329103   1.1418846956033200
  -1.3912978220050700   0.9965508922488920   7.5324371118383304
N    C    H    Co   Zn   O    Li
12  20  40  2  2  4  1  
Direct
  0.4874435550429450  0.2034085830827450  0.7822594347078832  
  0.4998245030169572  0.8004594777894202  0.1654103936358048  
  0.5048717055557345  0.1503272189580695  0.1417777715035960  
  0.4788490319350821  0.8772700267559005  0.8183006884746875  
  0.9748883800738836  0.6726178446222212  0.7675941040893236  
  0.9802499250173352  0.2867686717902757  0.1620455063343194  
  0.0171647549630120  0.6033528198091118  0.0991281420000096  
  0.9630973195165315  0.3253795001988760  0.8072677402373341  
  0.2782507780437178  0.0292234663847728  0.2275169524089890  
  0.7231652293146656  0.9691818726257314  0.8292293101107731  
  0.7493984935160560  0.5623344470094866  0.1336210637739978  
  0.2777219095746479  0.4868553098977465  0.8837832127025532  
  0.4904603365162406  0.3000793966360852  0.6399350642591657  
  0.5009094770576116  0.6585432865923988  0.2602735998580669  
  0.5081698384234724  0.2448772277334374  0.2349839878150843  
  0.4711504142763578  0.7994237855529384  0.7080937277456706  
  0.9742298251529644  0.8159882967998642  0.6748707999283520  
  0.9800813938064986  0.1888394514682527  0.3052334588152524  
  0.0578268521642985  0.6809021912481498  0.1697398002848785  
  0.9626039344195848  0.2281300898449482  0.7162163099022991  
  0.3481183554047693  0.0205406462797493  0.1772522118635800  
  0.6490455538320223  0.9551257877143008  0.8519119897176332  
  0.8230679091834302  0.5629311857159166  0.1013892891935183  
  0.2195643723971144  0.5235813691299763  0.9743783129293204  
  0.2690086811388949  0.0378364090096197  0.4110639743364261  
  0.7537434059357969  0.9113624973176382  0.6824826004350980  
  0.7257361762186306  0.6236516848334094  0.2851897551777720  
  0.2671689861482507  0.3799641361995081  0.7564953598581530  
  0.2139172084922492  0.0250777628303945  0.1163665210795864  
  0.7684574540946720  0.0372030683471542  0.9380703220952752  
  0.6979902594557350  0.5056362371387669  0.0286237280856316  
  0.3453179183976168  0.5480337009672894  0.9085519761590900  
  0.2361466801414688  0.9314273955488888  0.4787398983301317  
  0.7825874440738171  0.0175370443797433  0.5996838684492012  
  0.7925801637985272  0.7953451616247985  0.7368366697557177  
  0.2399826281418457  0.1638911329484564  0.4080828742789235  
  0.6981326042465323  0.5203052481277731  0.3756634883531871  
  0.2799221173751781  0.4549018864204179  0.6225024955103177  
  0.3036862781382755  0.2590741221806076  0.8026366203903980  
  0.6871521181730158  0.7407819143454207  0.2356698152854743  
  0.1215115086921417  0.6892604661153346  0.5113951051810450  
  0.8160132648647649  0.1974573303661169  0.2992447105793662  
  0.8927492755365855  0.8310679287216886  0.3538752152745012  
  0.1245978737008090  0.1172894749975655  0.5935745897362801  
  0.6954138412191231  0.3258761196440159  0.6571989803303897  
  0.3720831829623568  0.6922919796543980  0.5059137637301052  
  0.3604290345040355  0.3566493234279242  0.3859799357645903  
  0.6247888302632562  0.6512236612935466  0.5926629918973731  
  0.1238101156841872  0.0595142108236907  0.6878222431249239  
  0.8655725231027341  0.8858597699899855  0.2798765834522128  
  0.7751726098348525  0.1919241465440309  0.3069491941422151  
  0.1528324588784028  0.7001101353641600  0.5761422432958930  
  0.5858219399628047  0.6832623362328525  0.6020739840724498  
  0.3497994793287159  0.4180998797755105  0.2936943861592697  
  0.3432743458831819  0.6706315844367008  0.4412179086736412  
  0.6541081135098274  0.3340839793007937  0.6587695706354438  
  0.1661596041403432  0.1030720301385485  0.1405355102260804  
  0.7436727847336274  0.0853282244147340  0.0409393662552989  
  0.8261022827980689  0.0486674102534351  0.9118725603868340  
  0.2244875138400516  0.0394412173880711  0.9761218886150420  
  0.6403391723298866  0.5143490207292674  0.0554630081006194  
  0.3899874255983588  0.5128122421223216  0.8363179706831763  
  0.3504713593462395  0.6401203666317050  0.9897606673106016  
  0.7169700338363335  0.4576575467282722  0.9194062854089398  
  0.3231519198453045  0.0246551696240712  0.4880451594334450  
  0.7083096784491538  0.8789251643964130  0.5984202326206846  
  0.7743933310344173  0.6552655112010499  0.3597700178346626  
  0.2093884383703996  0.3468079607183180  0.7503631402154930  
  0.3912331694336427  0.0094612644899481  0.2884063546815087  
  0.6178902795780621  0.9056248408586416  0.7502253012082221  
  0.8589314553217221  0.6047274202253237  0.2013646310793735  
  0.1669870985073371  0.4727034543160728  0.9375606053132604  
  0.4923338596119569  0.0100175778430979  0.9831979715432172  
  0.9763359734655728  0.4707434798582635  0.9562285488794460  
  0.4976184105971585  0.4110240827951171  0.3839778344106485  
  0.9742509089420036  0.0685469333317435  0.5608369709387971  
  0.3636659057679902  0.0225808341917807  0.0206011662334511  
  0.6199545474882446  0.9954293987489456  0.9783688141738978  
  0.8465762250506723  0.5203022292564042  0.9701351638980790  
  0.2263206258669953  0.6093326684654932  0.0890662425970313  
  0.1658256783344616  0.7631001442620556  0.1692703396188884  
