N    C    H    Ag   Cd   O    Li
   1.00000000000000     
  18.9613928628109996  -0.3129699599164810   0.4124161912057270
  -0.1064898517213310   8.4242868717060002   1.0205963954759101
  -2.1697078850929601   0.9605250930612020   7.7423642752620703
N    C    H    Ag   Cd   O    Li
12  20  40  2  2  4  1  
Direct
  0.5539185435190481  0.1496581091716335  0.8478678817442263  
  0.5661846958827151  0.7672836795114817  0.2678209710102775  
  0.3631648536564783  0.3703506316781071  0.2032344605756110  
  0.4060218088793512  0.6931819173794029  0.7484845186903708  
  0.0370332399324590  0.8028380170915611  0.8082931587861807  
  0.0134083857122377  0.4119651012879145  0.1057337981853025  
  0.0082206931943583  0.8025706242528498  0.1873044179292156  
  0.9217069260457944  0.2974345285374375  0.6312863062639950  
  0.2819509053487138  0.0052488263797120  0.2156562916890669  
  0.7614104922504128  0.9455992948022176  0.7663640650323661  
  0.7574935341137189  0.4811790805221814  0.1156452231869122  
  0.2392331678753436  0.5810350220984557  0.9239360339843052  
  0.5393540841718950  0.2659815616569075  0.7328958313555349  
  0.5511583526429338  0.6621645532305979  0.3747559694809210  
  0.4064439886872681  0.4059475972403108  0.3188274258806775  
  0.4360190260218026  0.6248408161106178  0.6740974936757660  
  0.0355156154496690  0.9031559467881112  0.6800411038549562  
  0.0235485485329103  0.3016316246187918  0.2299220460939492  
  0.9896207633816216  0.8993327219997981  0.2511493320711755  
  0.9271189537236392  0.2235500475097907  0.5292992225210138  
  0.3230258598527525  0.0321709257887742  0.0878378457486106  
  0.7002333465670830  0.9263218428890310  0.8327461723666095  
  0.8225023092090362  0.4707668396109431  0.0722528633602577  
  0.1723328922706609  0.5655358236861839  0.9693769692632488  
  0.3194615582533144  0.0097648401267633  0.3965778230048723  
  0.7518812138526084  0.9957201556719544  0.5761398314766386  
  0.7575567756241957  0.5333430407738284  0.2761079896572763  
  0.2489642046642434  0.5028571817119489  0.7870016076402041  
  0.2117932626014098  0.9705960922318040  0.1716665967603488  
  0.8296102283356024  0.9225872494009176  0.8736161914950751  
  0.6929758539836951  0.4497228841747146  0.0127019864546786  
  0.2939611655225211  0.6563951737481838  0.0068993733257750  
  0.3379201271018649  0.8873934115760078  0.4756330341935720  
  0.7749673923989240  0.1152522899999873  0.5412047806315700  
  0.7793698191333714  0.9072847642141196  0.5322189161276518  
  0.2823279527777792  0.0621819807711849  0.4547583969617739  
  0.7244606322064566  0.4518720382435498  0.3502800935555093  
  0.2916021621159846  0.5647455034600063  0.7295656918389246  
  0.2664358486271469  0.3755411823606338  0.8473978617049296  
  0.7347795712202466  0.6577781030225005  0.2409195176252525  
  0.1684569060083599  0.8748921255456915  0.5980910250353576  
  0.8040445323687690  0.1103396976620546  0.2367284258654479  
  0.9005878941719707  0.7220134926073031  0.5733492022178202  
  0.1152638080727993  0.2191345125632368  0.7476027934073746  
  0.6826644997537459  0.2939661223786235  0.6416645465383706  
  0.2907989013991313  0.6254518423331630  0.4329238853298646  
  0.2226801778941534  0.3214199152175394  0.4143715529701289  
  0.7076144759479447  0.6515108647002021  0.5734385468168579  
  0.1533370785172720  0.1962472207740320  0.7483544936793073  
  0.8749182383670381  0.7376085446113895  0.4837096648851145  
  0.7787165279832587  0.0634887689540080  0.1792740566167500  
  0.2084036645078034  0.8905349262277492  0.6236123490381223  
  0.7395791596738976  0.6158510988542188  0.6479647380920101  
  0.1845097102989492  0.2962433305337369  0.4153471585759694  
  0.2533829545907065  0.6275026608084553  0.3728990689434019  
  0.7215039570899897  0.3135439531552343  0.6772845542452964  
  0.1815383513044954  0.9468933756808656  0.2718783353766720  
  0.8758549071114857  0.9405279895803254  0.8157094732718218  
  0.8352582535549161  0.8883033292962164  0.0140434418248312  
  0.1872753574380872  0.9685839533478848  0.0358655175254769  
  0.6436035575239138  0.4647215772076173  0.0528373567997008  
  0.3430780882476065  0.6737853246777979  0.9588000738582244  
  0.2859761815872237  0.6996287187146925  0.1168591614557726  
  0.6933838737954158  0.4114133617960280  0.8945281562010879  
  0.3661830795808146  0.0876784421755669  0.3929112761661323  
  0.6936815432507631  0.0019177303501142  0.5107201154522732  
  0.8134442986417736  0.5272533660282043  0.3573771085594954  
  0.1976029542307569  0.5105068729630492  0.6864756150326975  
  0.3793601638679646  0.0658874151674500  0.1392252880952618  
  0.6487701501684866  0.9495685924711588  0.7293246823421404  
  0.8701601519996643  0.4969253021691877  0.1703866104115046  
  0.1319043586414860  0.5047859320738443  0.8838720751532571  
  0.5686059110324655  0.9517360299752660  0.0555861801358739  
  0.9373279829353180  0.3822429223212424  0.8612930513773172  
  0.4865921429219464  0.4871028633616589  0.5309228151281445  
  0.9937128052298816  0.0762456315532006  0.4176443182008157  
  0.2969788800519729  0.0170591553282824  0.9379189777378962  
  0.7032407865417817  0.8880327007083381  0.9919493671077072  
  0.8267456777416353  0.4341682431100166  0.9337716100541174  
  0.1596515066411157  0.6182239454974815  0.0891452228122242  
  0.0499378463631964  0.6677469977245911  0.0583390100466117  
