N    C    H    V    Mg   O    Li        
   1.00000000000000     
    17.8744318720674471   -0.2911421980560090    0.9821907025838370
    -0.4370512801926364    7.7921665879827922   -0.0563845821182061
    -0.7337017389998025   -0.0751293643821734    7.4211841131614849
   N    C    H    V    Mg   O    Li
    12    20    40     2     2     4     1
Direct
  0.5014941251357857  0.1610068722925444  0.8038813811690976
  0.5101627032251846  0.8043144588249782  0.2062731154562442
  0.5158376713767667  0.1786559404989878  0.1925769936596078
  0.4868817669419939  0.7885205809182309  0.8406794904308549
  0.0003169973594065  0.7247909798548596  0.8048346134898769
  0.0234637472972159  0.3475078372387804  0.1816846651998416
  0.0125069420765005  0.7212854325330518  0.1836048330699852
  0.9943155012027982  0.3472722137325666  0.7901729582662674
  0.2781723932568573 -0.0367072257546333  0.1313725294770486
  0.7357448850199160  0.9777505044104211  0.8671454357115415
  0.7790054961383260  0.5590755810403104  0.0545392418269296
  0.2406546748160948  0.5192115430522137  0.9341711656224512
  0.4981382518715580  0.2730110123820662  0.7006158103492445
  0.5068997866841226  0.6997506049750118  0.3181645221425915
  0.5113664497851657  0.2914800474873616  0.2965510679157263
  0.4699920880175841  0.6484795059106507  0.7603011486953631
  0.0086155613919572  0.8394725641704418  0.7045377047107304
  0.0295308057214965  0.2398519526954811  0.2890018592376075
  0.0104528798412447  0.8339283212283961  0.2886729605577854
  0.9842313169418616  0.2381009781473900  0.6804446482803903
  0.3501662989043908  0.0231574022825137  0.1419057929809034
  0.6649816110638277  0.0230756235116495  0.8613454816628292
  0.8329364315919744  0.4454305440824398  0.0785206738964539
  0.1673663051822286  0.4798885399888045  0.9157396235026484
  0.2270740398096043  0.0132444905722405  0.2669466163731642
  0.7910702280701246  0.0465606032586093  0.7444960456480245
  0.7051666873849772  0.5139867874501528  0.1265776695007119
  0.2938965487739659  0.3999155670328535  0.8732689170674703
  0.2506633584235174  0.8486912327809165  0.9820580172009018
  0.7612787052602445  0.8697999470860802  0.0152106350795106
  0.7941316452871746  0.7077491929580108  0.9615899181559096
  0.2712778665606923  0.6699389660086756  0.0419983053671286
  0.1995821021196185  0.9001347683356437  0.3308178545485281
  0.8377032921782620  0.1192496601837443  0.8191646545472540
  0.8141489778807341  0.9415937040388458  0.6700487375490983
  0.1825243546272570  0.0849437229181461  0.2012401552389153
  0.6631141129115643  0.4828288402006951  0.0173354002341282
  0.3262467087019558  0.4563090454216693  0.7638627376489847
  0.3336790407211875  0.3730064587257755  0.9842198971849717
  0.6867316005626846  0.6204441513357273  0.2066056197165460
  0.1340186628884535  0.5223232337259004  0.4468145037340576
  0.8444941828656753  0.0340178100642354  0.3705495717915884
  0.8611297458750439  0.6422095359099561  0.5035766413404091
  0.1321560691352004  0.1544970776302782  0.5499200050381038
  0.6551436812138346  0.3603526963175799  0.5415715423814300
  0.3210387220523951  0.7735267289252463  0.5886266878563493
  0.3545016444796725  0.3840328753724199  0.4409793573570630
  0.6608432942910791  0.8894879288827234  0.4255533967065821
  0.1306074374456751  0.1033860366547980  0.6358582932421408
  0.8216290186748262  0.6559225521238328  0.4721068132795228
  0.8694369444853490  0.1097531773047338  0.3427103320683957
  0.1708977795377052  0.5517356634807228  0.4932602561266707
  0.6682025466920931  0.8345138815628255  0.5052325643777571
  0.3536046233654948  0.4719148433498531  0.4005698370526808
  0.2847904018645340  0.7359518469428066  0.5451815374988942
  0.6776631933245290  0.4332056786789809  0.5900887189897096
  0.2858003210570337 -0.1193782701988043  0.8661535383604515
  0.7127605389951717  0.8456152748055318  0.0980891806770653
  0.8041694947348544  0.9510992043438942  0.0949057595794297
  0.0960254936033231  0.0881435822738303  0.9967580887869802
  0.8490783537968909  0.7138823388537783  0.9038501393240524
  0.3327141126834938  0.6676300594612837  0.0376006684455594
  0.2548643542387660  0.6481628026728693  0.1812049710491794
  0.4384012913719864  0.5521140553972692  0.8440275981072616
  0.2575424687882295  0.0913408930804372  0.3741522792079634
  0.7649739509933372  0.1325320054727627  0.6490668562009437
  0.7092037868983063  0.4030488443716775  0.2142683009050575
  0.2642081410228427  0.2784112919830564  0.8274734238363481
  0.3684033332188419  0.1141899749954471  0.2520753218671390
  0.6492367219945335  0.1061415942300597  0.7494892420050316
  0.8159557878042731  0.3241494978307692  0.1441592548807417
  0.1493839228851257  0.3553415305925853  0.8512545966815492
  0.5048666560559388  0.9733592528415272  0.9938256087012387
  0.0046670094941604  0.5270424697840649  0.9916093449329459
  0.4962845998172705  0.4919964899721360  0.5127325017075064
  0.0114617452115587  0.0388879032849013  0.4919896310454367
  0.3951199667379672  0.9763561615147068  1.0280545054313557
  0.6190207835506251  0.9744055841758487  0.9761128658425644
  0.8982115932355874  0.4804906589590253  1.0274986990405652
  0.1195344846310027  0.5774486453867683  0.9731194925669709
  0.1174974912224700  0.8473984740443116  0.9717068044626205
 
             NaN             NaN             NaN
             NaN             NaN             NaN
             NaN             NaN             NaN
             NaN             NaN             NaN
             NaN             NaN             NaN
             NaN             NaN             NaN
             NaN             NaN             NaN
             NaN             NaN             NaN
             NaN             NaN             NaN
             NaN             NaN             NaN
             NaN             NaN             NaN
             NaN             NaN             NaN
             NaN             NaN             NaN
             NaN             NaN             NaN
             NaN             NaN             NaN
             NaN             NaN             NaN
             NaN             NaN             NaN
             NaN             NaN             NaN
             NaN             NaN             NaN
             NaN             NaN             NaN
             NaN             NaN             NaN
             NaN             NaN             NaN
             NaN             NaN             NaN
             NaN             NaN             NaN
             NaN             NaN             NaN
             NaN             NaN             NaN
             NaN             NaN             NaN
             NaN             NaN             NaN
             NaN             NaN             NaN
             NaN             NaN             NaN
             NaN             NaN             NaN
             NaN             NaN             NaN
             NaN             NaN             NaN
             NaN             NaN             NaN
             NaN             NaN             NaN
             NaN             NaN             NaN
             NaN             NaN             NaN
             NaN             NaN             NaN
             NaN             NaN             NaN
             NaN             NaN             NaN
             NaN             NaN             NaN
             NaN             NaN             NaN
             NaN             NaN             NaN
             NaN             NaN             NaN
             NaN             NaN             NaN
             NaN             NaN             NaN
             NaN             NaN             NaN
             NaN             NaN             NaN
             NaN             NaN             NaN
             NaN             NaN             NaN
             NaN             NaN             NaN
             NaN             NaN             NaN
             NaN             NaN             NaN
             NaN             NaN             NaN
             NaN             NaN             NaN
             NaN             NaN             NaN
             NaN             NaN             NaN
             NaN             NaN             NaN
             NaN             NaN             NaN
             NaN             NaN             NaN
             NaN             NaN             NaN
             NaN             NaN             NaN
             NaN             NaN             NaN
             NaN             NaN             NaN
             NaN             NaN             NaN
             NaN             NaN             NaN
             NaN             NaN             NaN
             NaN             NaN             NaN
             NaN             NaN             NaN
             NaN             NaN             NaN
             NaN             NaN             NaN
             NaN             NaN             NaN
             NaN             NaN             NaN
             NaN             NaN             NaN
             NaN             NaN             NaN
             NaN             NaN             NaN
             NaN             NaN             NaN
             NaN             NaN             NaN
             NaN             NaN             NaN
             NaN             NaN             NaN
             NaN             NaN             NaN
