H    Li   C    N    O    Ge  Cu         
   1.00000000000000     
     6.3497955770798065   -1.0285318430084922    0.5864615842973102
    -0.3490713959506178    6.7796255930623586   -0.0530241290756658
     0.1687165666661601   -0.0739689901080957    6.5470649595739125
   H    Li   C    N    O    Ge   Cu
    14     1    10     6     2     1     1
Selective dynamics
Direct
  0.5661875883862044  0.9441391000355497  0.7076304426814733   T   T   T
  0.2083134895786657  0.0001145093504927  0.2669929442827100   T   T   T
  0.3767738061956057  0.2398692544793527  0.2525663839134643   T   T   T
  0.1879766086834493  0.1755835356662869  0.4813207053019908   T   T   T
  0.6270056256784592  0.0373332156982563  0.1898184377251270   T   T   T
  0.4854099997047893  0.7882142465385473  0.2685546979162610   T   T   T
  0.7058273547329756  0.9174088797542750  0.4126353664052034   T   T   T
  0.3364911438318742  0.5332900381970976  0.4685178017845596   T   T   T
  0.5391324009795709  0.3599523299790458  0.9809008934440131   T   T   T
  0.6546829687862373  0.6358825840730319  0.9520522294228189   T   T   T
  0.7532712421112420  0.4548661217324024  0.7825123384468398   T   T   T
  0.3225294155896485  0.7194263439820410  0.9327064920098901   T   T   T
  0.2240827601880742  0.4462231199312283  0.9670194552811360   T   T   T
  0.1782435725181156  0.5799663336529255  0.7359528187822395   T   T   T
  0.6810615134576364  0.6024888515034005  0.1831365163379320   T   T   T
  0.0037737001568178  0.8273450729666163  0.0734242408774029   T   T   T
  0.9497746027739662  0.1935322369384776  0.7194160878491983   T   T   T
  0.9720211364868147  0.8425542676373809  0.6942508191831538   T   T   T
  0.9737721708738345  0.1940052442506292  0.0997893698956093   T   T   T
  0.4480755695707228  0.0280174793772098  0.6700852304469211   T   T   T
  0.2917443858115149  0.1181528064250009  0.3619544844322373   T   T   T
  0.5750125164723927  0.9366713630242510  0.3257312339652960   T   T   T
  0.4819068007486972  0.5025402647270319  0.5395322741146541   T   T   T
  0.6165757406117280  0.4850591597101287  0.8763381147492721   T   T   T
  0.2806516630945188  0.5710941800797894  0.8531727973612104   T   T   T
 -0.0175550462537367  0.6939600876020473  0.1986842082023335   T   T   T
  0.9076977537077349  0.3111635628544102  0.6058905588969937   T   T   T
  0.9332975998771973  0.6953606602963415  0.5918721015351639   T   T   T
  0.9255683867705323  0.3194486025843871  0.2071765705645177   T   T   T
  0.4346657339705314  0.0263557099929554  0.4650108653302816   T   T   T
  0.4671599096452642  0.5278965994000629  0.7410606262850857   T   T   T
  0.3446525453333298  0.1114857064625180  0.8084581590583766   T   T   T
  0.6315453246969374  0.4572053662378581  0.4260584576961848   T   T   T
  0.0537434249538209  0.5184319554711212  0.3939396413415341   T   T   T
  0.9698345902748103  0.0099904093878554  0.9043028344789180   T   T   T
 
  0.00000000E+00  0.00000000E+00  0.00000000E+00
  0.00000000E+00  0.00000000E+00  0.00000000E+00
  0.00000000E+00  0.00000000E+00  0.00000000E+00
  0.00000000E+00  0.00000000E+00  0.00000000E+00
  0.00000000E+00  0.00000000E+00  0.00000000E+00
  0.00000000E+00  0.00000000E+00  0.00000000E+00
  0.00000000E+00  0.00000000E+00  0.00000000E+00
  0.00000000E+00  0.00000000E+00  0.00000000E+00
  0.00000000E+00  0.00000000E+00  0.00000000E+00
  0.00000000E+00  0.00000000E+00  0.00000000E+00
  0.00000000E+00  0.00000000E+00  0.00000000E+00
  0.00000000E+00  0.00000000E+00  0.00000000E+00
  0.00000000E+00  0.00000000E+00  0.00000000E+00
  0.00000000E+00  0.00000000E+00  0.00000000E+00
  0.00000000E+00  0.00000000E+00  0.00000000E+00
  0.00000000E+00  0.00000000E+00  0.00000000E+00
  0.00000000E+00  0.00000000E+00  0.00000000E+00
  0.00000000E+00  0.00000000E+00  0.00000000E+00
  0.00000000E+00  0.00000000E+00  0.00000000E+00
  0.00000000E+00  0.00000000E+00  0.00000000E+00
  0.00000000E+00  0.00000000E+00  0.00000000E+00
  0.00000000E+00  0.00000000E+00  0.00000000E+00
  0.00000000E+00  0.00000000E+00  0.00000000E+00
  0.00000000E+00  0.00000000E+00  0.00000000E+00
  0.00000000E+00  0.00000000E+00  0.00000000E+00
  0.00000000E+00  0.00000000E+00  0.00000000E+00
  0.00000000E+00  0.00000000E+00  0.00000000E+00
  0.00000000E+00  0.00000000E+00  0.00000000E+00
  0.00000000E+00  0.00000000E+00  0.00000000E+00
  0.00000000E+00  0.00000000E+00  0.00000000E+00
  0.00000000E+00  0.00000000E+00  0.00000000E+00
  0.00000000E+00  0.00000000E+00  0.00000000E+00
  0.00000000E+00  0.00000000E+00  0.00000000E+00
  0.00000000E+00  0.00000000E+00  0.00000000E+00
  0.00000000E+00  0.00000000E+00  0.00000000E+00
