H    Li   C    N    O    Cr   Mn        
   1.00000000000000     
     7.1426731165550983   -0.9196461859921939    0.6078854977244982
    -0.2671628966738264    7.0138022826261643    0.0255026602083616
     0.1976947045652397    0.0114151793666398    6.6469141368890936
   H    Li   C    N    O    Cr   Mn
    14     1    10     6     2     1     1
Selective dynamics
Direct
  0.5433341445232763  0.9558706748423876  0.7370802973398644   T   T   T
  0.2581337734138626 -0.0121297135761780  0.2463415902010477   T   T   T
  0.3942278710211516  0.2190167802558902  0.2657229777045984   T   T   T
  0.2010893597620277  0.1449901892457458  0.4559880208742809   T   T   T
  0.6650516886439510  0.0287742139758086  0.2474864753300398   T   T   T
  0.5180153780074854  0.7985162879550070  0.2785845677592959   T   T   T
  0.6690491713168434 -0.1278353374180972  0.4657050008003380   T   T   T
  0.3324670660128771  0.5278767281647567  0.4962245533876631   T   T   T
  0.5348532971513381  0.3514268094570329  0.9801467250285881   T   T   T
  0.6444081116967396  0.5987321597388621  0.9688769290616470   T   T   T
  0.7211352391442386  0.4358970428552864  0.7846741480884292   T   T   T
  0.3324552469678484  0.7151611710194254  0.9361763994169012   T   T   T
  0.2338354926702199  0.4668494820254572  0.9875399894790357   T   T   T
  0.1830106766062639  0.5861717892222549  0.7686857928506162   T   T   T
  0.9541004421309549  0.9676654628196182  0.3449851738937407   T   T   T
  0.9641558672662799  0.8255613475980571  0.0452328539770597   T   T   T
  0.9540173222134027  0.2027160041431326  0.6805415400770781   T   T   T
  0.9645119204129411  0.8348282790808872  0.6752816005711004   T   T   T
  0.9609181968482793  0.2015114158588206  0.0572753666946429   T   T   T
  0.4276919885310106  0.0163063171010816  0.6781705450216572   T   T   T
  0.3130630505983057  0.0948109698474106  0.3552044327159379   T   T   T
  0.5811243242454207  0.9240797251450016  0.3600982290787728   T   T   T
  0.4644150776602018  0.5038807661550716  0.5540200415439024   T   T   T
  0.5992087130523137  0.4734158593323494  0.8776949767540095   T   T   T
  0.2919780233465576  0.5745321163771471  0.8675583802643284   T   T   T
  0.9194359085412847  0.6963208566998762  0.1706097690872154   T   T   T
  0.9180741080688382  0.3200365593112338  0.5658303703557777   T   T   T
  0.9257690405564987  0.7070312723553870  0.5592387335735396   T   T   T
  0.9143326129624552  0.3160485547014462  0.1786832661785315   T   T   T
  0.4360573023000991  0.0116440161779742  0.4753369412379483   T   T   T
  0.4577313894810132  0.5169633334054313  0.7539412347888420   T   T   T
  0.3095276519327040  0.0850951254644427  0.7975492777227247   T   T   T
  0.5963938640969433  0.4659093883306562  0.4257812958559168   T   T   T
  0.8762670391774978  0.5031715484542777  0.3761799577580779   T   T   T
  0.0214346396388740  0.0271598038770585  0.8578705455268532   T   T   T
 
  0.00000000E+00  0.00000000E+00  0.00000000E+00
  0.00000000E+00  0.00000000E+00  0.00000000E+00
  0.00000000E+00  0.00000000E+00  0.00000000E+00
  0.00000000E+00  0.00000000E+00  0.00000000E+00
  0.00000000E+00  0.00000000E+00  0.00000000E+00
  0.00000000E+00  0.00000000E+00  0.00000000E+00
  0.00000000E+00  0.00000000E+00  0.00000000E+00
  0.00000000E+00  0.00000000E+00  0.00000000E+00
  0.00000000E+00  0.00000000E+00  0.00000000E+00
  0.00000000E+00  0.00000000E+00  0.00000000E+00
  0.00000000E+00  0.00000000E+00  0.00000000E+00
  0.00000000E+00  0.00000000E+00  0.00000000E+00
  0.00000000E+00  0.00000000E+00  0.00000000E+00
  0.00000000E+00  0.00000000E+00  0.00000000E+00
  0.00000000E+00  0.00000000E+00  0.00000000E+00
  0.00000000E+00  0.00000000E+00  0.00000000E+00
  0.00000000E+00  0.00000000E+00  0.00000000E+00
  0.00000000E+00  0.00000000E+00  0.00000000E+00
  0.00000000E+00  0.00000000E+00  0.00000000E+00
  0.00000000E+00  0.00000000E+00  0.00000000E+00
  0.00000000E+00  0.00000000E+00  0.00000000E+00
  0.00000000E+00  0.00000000E+00  0.00000000E+00
  0.00000000E+00  0.00000000E+00  0.00000000E+00
  0.00000000E+00  0.00000000E+00  0.00000000E+00
  0.00000000E+00  0.00000000E+00  0.00000000E+00
  0.00000000E+00  0.00000000E+00  0.00000000E+00
  0.00000000E+00  0.00000000E+00  0.00000000E+00
  0.00000000E+00  0.00000000E+00  0.00000000E+00
  0.00000000E+00  0.00000000E+00  0.00000000E+00
  0.00000000E+00  0.00000000E+00  0.00000000E+00
  0.00000000E+00  0.00000000E+00  0.00000000E+00
  0.00000000E+00  0.00000000E+00  0.00000000E+00
  0.00000000E+00  0.00000000E+00  0.00000000E+00
  0.00000000E+00  0.00000000E+00  0.00000000E+00
  0.00000000E+00  0.00000000E+00  0.00000000E+00
