N    C    H    Mn   Ni   O    Li
   1.00000000000000     
  17.0447715979500991  -0.1797508980736040   0.3697789695806370
  -0.0797707203756180   7.5655917890311901   0.0124498037529959
  -1.7970344595380099   0.0303481998867845   7.0581897140811698
N    C    H    Mn   Ni   O    Li
12  20  40  2  2  4  1  
Direct
  0.4855951059225114  0.2079750055384063  0.7835754212063222  
  0.5264825969066051  0.7833180895321025  0.2267835306224151  
  0.5213367527394456  0.2157745343013818  0.2260197607951561  
  0.4878650752937522  0.7865441753165793  0.7809946042486838  
  0.9892452688664816  0.7281317922490399  0.8160927294176916  
  0.0116830270172159  0.2882927816868880  0.2307198068150635  
  0.0306110133392094  0.7318467813018469  0.2322266667255893  
  0.9737969946352972  0.2912953925264503  0.7749016826877723  
  0.2821730311578922  0.9995404046466890  0.1974304362748255  
  0.7232294207171261  0.9979029987674610  0.8053403319611023  
  0.7727189502011171  0.5023815849079775  0.1937380992807922  
  0.2217567856593606  0.4973563173768672  0.8166794761916653  
  0.4865844818286543  0.3214477572252181  0.6734300067427399  
  0.5144005360038018  0.6721804872807068  0.3310642109281217  
  0.5108875536841118  0.3256613992569812  0.3301844336540565  
  0.4888078339570651  0.6736230143990406  0.6719461023986441  
  0.9897120976641560  0.8326524704780671  0.6955008837152697  
  0.0048090599129112  0.1748583103594976  0.3373557334100764  
  0.0141518011724085  0.8310330501518755  0.3396404489396360  
  0.9792002105558636  0.1774270502993899  0.6703204166317234  
  0.3574713747737752  0.9923371370308570  0.1808967107110357  
  0.6492399985464067  0.0002465242158637  0.8409975972740164  
  0.8482005942129207  0.4980605636220602  0.1732544298074168  
  0.1465097128777176  0.5053569559287713  0.8352366844768980  
  0.2670145362356677  0.0094587918349158  0.3866670594185282  
  0.7329773873824663  0.9994258731541300  0.6108772188016135  
  0.7563727428127286  0.5012913952404652  0.3829783825418748  
  0.2394594931364308  0.4945703192814753  0.6285768669758094  
  0.2117785500466114  0.9916609051710610  0.0419109793007973  
  0.7955520492116201  0.9977785635506909  0.9449636151825838  
  0.7026640591149601  0.5037538721435336  0.0445731002673297  
  0.2912583846830228  0.4985933525678563  0.9673523172002328  
  0.2392727303424805  0.8871953515947970  0.4245279486121246  
  0.7674760096195807  0.1183936532937910  0.5861863671684150  
  0.7663607573884395  0.8826643345711527  0.5852359317819845  
  0.2271709311021214  0.1202483344222445  0.3924286110335640  
  0.7205886281010240  0.3830190515314804  0.4000393172610173  
  0.2749959583309300  0.6134002811104763  0.6118246281679948  
  0.2742210834247484  0.3774667887070102  0.6143308749721513  
  0.7221066684166072  0.6184979179754818  0.4004000711049436  
  0.1400397713839556  0.8055770958471447  0.5703059362900519  
  0.8438254760356079  0.1700397900016825  0.3631594284301372  
  0.8446789724877984  0.8281047808404867  0.3676314378337076  
  0.1508839149157147  0.1703764945594325  0.6149264689432576  
  0.6476726096662704  0.3369831459878257  0.6373485487410800  
  0.3489803258731669  0.6599261990102732  0.3734886211311993  
  0.3485725617469365  0.3364994209953510  0.3694379722743188  
  0.6489732239493304  0.6663971401508030  0.6360005768381796  
  0.1741314134411351  0.1583038685342578  0.7139128464182821  
  0.8084188558800295  0.8465877853569568  0.2905418512720388  
  0.8060335066040329  0.1514433307078725  0.2897847799612390  
  0.1683266594520281  0.8354752026774814  0.6583936610365551  
  0.6898065412177374  0.6585224528100122  0.7007479344154741  
  0.3085164681100964  0.3435583310530356  0.3011072946329572  
  0.3077784800746490  0.6610872997242423  0.3090053970166522  
  0.6894721179587056  0.3414490074208960  0.6986560083842553  
  0.1824730755968510  0.1241859033522160  0.0342595303172393  
  0.8278908312003053  0.8750320366254469  0.9740038758242446  
  0.8255664525475578  0.1236294616742829  0.9863145179247264  
  0.2357449654760564  0.9811774682677360  0.9126039903314550  
  0.6679525744164607  0.6249688484860997  0.0221000301432750  
  0.3241118015906047  0.3753421316139560  0.9927821634830408  
  0.3205426341161495  0.6259340099411287  0.0091334621911365  
  0.6729456827186452  0.3770368479582657  0.0001071164509829  
  0.3242039419679406  0.0342366301947611  0.4918397722156523  
  0.6738693006744857  0.9989123209127120  0.5105382913200974  
  0.8131001716138799  0.5013467924344964  0.4901665056179733  
  0.1831149553051550  0.4940686047241266  0.5199639753918114  
  0.4032482672500028  0.9858103844407070  0.3164037712477086  
  0.5998234903367718  0.0009526190524486  0.7129161612951762  
  0.8934002075390565  0.4943289851638651  0.3070616557272624  
  0.1013647512703980  0.4947966054044500  0.7011817010893960  
  0.5001490325267862  0.9968418337855020  0.0090505282101730  
  0.9949560422552410  0.4808857105427827  0.0042714457069648  
  0.4972677161579749  0.4982585993233022  0.4999688172223202  
  0.9942819618703640  0.9993597630670520  0.5088842430326745  
  0.3787986605057856  0.9879116737363872  0.0243898075244711  
  0.6352570567710778  0.0006275498738577  0.0023301391499072  
  0.8693952532225748  0.4984406374291112  0.0172900653464612  
  0.1248029558525201  0.5248660502625491  0.9894331447104636  
  0.1143879271579777  0.7913138605418220  0.0295629425784267  
