H    Li   C    N    O    Ge  Cu         
   1.00000000000000     
     6.7961225798851848   -0.8868214716787131    0.6582087535051449
    -0.1873580275680189    7.0225450644864287    0.0192460369907239
     0.2538775311781302   -0.0050439766137256    6.6587275172988987
   H    Li   C    N    O    Ge   Cu
    14     1    10     6     2     1     1
Selective dynamics
Direct
  0.5592762157498126  0.9427420390975499  0.7013363096409351   T   T   T
  0.2186362645253231  0.0019143496076980  0.2805041607035143   T   T   T
  0.3873106686009509  0.2136675818251364  0.2540649519840387   T   T   T
  0.2100297411186040  0.1715327404999780  0.4725211729639121   T   T   T
  0.6499837043993499  0.0108267419346785  0.2123872812752733   T   T   T
  0.4846946513106053  0.7969855955678959  0.2633559241985141   T   T   T
  0.6725212702061942  0.8640756674322629  0.4168170921909914   T   T   T
  0.3587631113064107  0.5178545847743444  0.4698037020113609   T   T   T
  0.5413310552606307  0.3751270887538057  0.9588555806788270   T   T   T
  0.6399995826073648  0.6286553536678131  0.9482627428499074   T   T   T
  0.7422294239731915  0.4682194205470466  0.7764748619384947   T   T   T
  0.3189015557450143  0.7142428516397468  0.9082955843050186   T   T   T
  0.2287354079692234  0.4679270674794385  0.9486058761005151   T   T   T
  0.1859925068685258  0.5867949310696819  0.7318835588777467   T   T   T
  0.7454976878681423  0.4757868634134529  0.1437062766959043   T   T   T
  0.9723174486536604  0.8306942097474539  0.0840883745954986   T   T   T
  0.9453044153182623  0.2047650734720093  0.7288020710065490   T   T   T
  0.9557743839829683  0.8451854437326535  0.7127417827007017   T   T   T
  0.9613243883813984  0.2015706110509134  0.0992954829732129   T   T   T
  0.4501436783143588  0.0220911837949205  0.6589631794418997   T   T   T
  0.3060878468114896  0.1073488247066660  0.3630852744606868   T   T   T
  0.5681820229183190  0.9153851329310662  0.3327342802405834   T   T   T
  0.4906723581927204  0.5107804337044817  0.5391434151248162   T   T   T
  0.6087206148075693  0.4992816792878987  0.8614344087735488   T   T   T
  0.2882952350296519  0.5771572395542202  0.8382083010568874   T   T   T
  0.9540935759617110  0.7019519841766352  0.2077793911133682   T   T   T
  0.9396210599999166  0.3310890986123961  0.6071022006974347   T   T   T
  0.9447781575763908  0.7155962633015844  0.5944107141812537   T   T   T
  0.9482021531222746  0.3243564349500950  0.2209419623033876   T   T   T
  0.4403609245325478  0.0174917578030266  0.4596709564883069   T   T   T
  0.4703221808457651  0.5288756918817724  0.7293388900493232   T   T   T
  0.3510943075443979  0.1110882813356875  0.7842829249820716   T   T   T
  0.6434743978668542  0.4806228937620382  0.4161416629261432   T   T   T
  0.9346923733507621  0.5173048439023286  0.4174263773309437   T   T   T
  0.9799656292796666  0.0240540409816362  0.9040982731384296   T   T   T
 
  0.00000000E+00  0.00000000E+00  0.00000000E+00
  0.00000000E+00  0.00000000E+00  0.00000000E+00
  0.00000000E+00  0.00000000E+00  0.00000000E+00
  0.00000000E+00  0.00000000E+00  0.00000000E+00
  0.00000000E+00  0.00000000E+00  0.00000000E+00
  0.00000000E+00  0.00000000E+00  0.00000000E+00
  0.00000000E+00  0.00000000E+00  0.00000000E+00
  0.00000000E+00  0.00000000E+00  0.00000000E+00
  0.00000000E+00  0.00000000E+00  0.00000000E+00
  0.00000000E+00  0.00000000E+00  0.00000000E+00
  0.00000000E+00  0.00000000E+00  0.00000000E+00
  0.00000000E+00  0.00000000E+00  0.00000000E+00
  0.00000000E+00  0.00000000E+00  0.00000000E+00
  0.00000000E+00  0.00000000E+00  0.00000000E+00
  0.00000000E+00  0.00000000E+00  0.00000000E+00
  0.00000000E+00  0.00000000E+00  0.00000000E+00
  0.00000000E+00  0.00000000E+00  0.00000000E+00
  0.00000000E+00  0.00000000E+00  0.00000000E+00
  0.00000000E+00  0.00000000E+00  0.00000000E+00
  0.00000000E+00  0.00000000E+00  0.00000000E+00
  0.00000000E+00  0.00000000E+00  0.00000000E+00
  0.00000000E+00  0.00000000E+00  0.00000000E+00
  0.00000000E+00  0.00000000E+00  0.00000000E+00
  0.00000000E+00  0.00000000E+00  0.00000000E+00
  0.00000000E+00  0.00000000E+00  0.00000000E+00
  0.00000000E+00  0.00000000E+00  0.00000000E+00
  0.00000000E+00  0.00000000E+00  0.00000000E+00
  0.00000000E+00  0.00000000E+00  0.00000000E+00
  0.00000000E+00  0.00000000E+00  0.00000000E+00
  0.00000000E+00  0.00000000E+00  0.00000000E+00
  0.00000000E+00  0.00000000E+00  0.00000000E+00
  0.00000000E+00  0.00000000E+00  0.00000000E+00
  0.00000000E+00  0.00000000E+00  0.00000000E+00
  0.00000000E+00  0.00000000E+00  0.00000000E+00
  0.00000000E+00  0.00000000E+00  0.00000000E+00
