N    C    H    Pt   Pb   O    Li
   1.00000000000000     
  16.3498288876349989   0.1566852260113110  -1.0949781883237000
   0.0829277885373948   7.2940891638520302   0.0596827848634330
  -2.5046041221261901   0.0337436382034644   6.7260681535678497
N    C    H    Pt   Pb   O    Li
12  20  40  2  2  4  1  
Direct
  0.4559722415235839  0.1916413265579049  0.7937633865707604  
  0.5419964077004061  0.8049307829370969  0.2138136137827599  
  0.5367622399107999  0.1930111918952666  0.2121310085308251  
  0.4596200015482826  0.8167455845939574  0.7932468289797203  
  0.9687549575298450  0.7007716226514334  0.8041427676921585  
  0.0383553732573728  0.2962558755328479  0.2040634406167646  
  0.0334985645002069  0.6711177000190088  0.2207053841472346  
  0.9693389175733071  0.3078402770016255  0.7874642024507650  
  0.2746064346930338  0.0043885770752442  0.1953723382766951  
  0.7273699204527290  0.9998794392471840  0.8022073926836177  
  0.7746023239508545  0.5011630826717054  0.1920840826045502  
  0.2221580356357647  0.5005168148326570  0.8144716366174363  
  0.4287270539912219  0.2967994565627659  0.6556961670952763  
  0.5318659206357124  0.6891940596884292  0.3166422400058409  
  0.5225961494341040  0.3123864215190601  0.3038901314747425  
  0.4328461721734961  0.7182799606578293  0.6532444936486282  
  0.9975038855364360  0.8259718043763640  0.7440693396992696  
  0.0625176349748578  0.1541800558585771  0.2924749150115504  
  0.0574359876619086  0.7462777118966065  0.3788601499845852  
  0.9986317428541818  0.2047721358514747  0.7033020596078065  
  0.3527887658886990  0.9945545689166092  0.1728212592227670  
  0.6504724795604611  0.9999363202447630  0.8287424508649068  
  0.8525639783901500  0.4982643540064345  0.1690577811504473  
  0.1440481151881292  0.4981834564686028  0.8350763403604046  
  0.2739217532593967  0.0107063064970759  0.3988372949581334  
  0.7281097183693079  0.9989365666269000  0.5991655466173842  
  0.7727312512131078  0.5015176569823261  0.3955580929249854  
  0.2255544298334539  0.4963228346965729  0.6121949047508500  
  0.1902327406349879  0.0032050211864809  0.0347603704120808  
  0.8140728006432678  0.0001387908714962  0.9629703094579212  
  0.6866147601174895  0.5010460910088862  0.0352645358610701  
  0.3101839046594417  0.5015592079974788  0.9730090532021896  
  0.2420847028797056  0.8867610980597740  0.4226207491472450  
  0.7628658213413687  0.1197396784103407  0.5802528879605805  
  0.7638431363032240  0.8754781173396551  0.5836269662002443  
  0.2358330216483944  0.1324124360474317  0.4092559114510851  
  0.7374063087127392  0.3806197271073436  0.4138828965674463  
  0.2602372821098028  0.6178657133360911  0.5926794868748385  
  0.2640736610551299  0.3744684259331896  0.6027478559760823  
  0.7357789038839465  0.6238806540176227  0.4101953169434721  
  0.1671327179473398  0.8238754705864639  0.6312381782965835  
  0.8215646770353747  0.1864110955853974  0.3509169631100841  
  0.8238260284468385  0.8116084737187076  0.3556741864720941  
  0.1608865939844399  0.1747620167091730  0.6316594699076792  
  0.6770183752205021  0.3139130400651332  0.6362314998592358  
  0.3315946416204216  0.6729156065979844  0.3585670960172175  
  0.3327941123641586  0.3308040372711396  0.3576367510231213  
  0.6735933973486693  0.6869156851086295  0.6363143572187788  
  0.1973221475775331  0.1471159182172833  0.7334383359988075  
  0.7869206507442060  0.8574141426854839  0.2644629609374484  
  0.7853973118918022  0.1415395386430771  0.2617300991532229  
  0.2088922104792574  0.8613038036122768  0.7127654783182904  
  0.7089195014848081  0.6453464738707275  0.7334356796909488  
  0.2979930415412365  0.3568507893923406  0.2528968295345679  
  0.2990653432022187  0.6416061462972700  0.2554509229344800  
  0.7109413618670123  0.3546676520888898  0.7320688007130154  
  0.1433976353553583  0.1170828572977850  0.0300847551852137  
  0.8511068822064563  0.8682594286981350  0.0029929033928450  
  0.8489306992647186  0.1309148175633643  0.9923128708268788  
  0.1781440731323224  0.9093222411411768  0.9083312929728904  
  0.6482783590706022  0.6313016705750335  0.0041055271685564  
  0.3480167779526240  0.3714698588750709  0.0029521642105532  
  0.3456547362513469  0.6302755383125862  0.9922190263686084  
  0.6517261172327664  0.3705871509414352  0.0102028203213589  
  0.3421440273156716  0.0140981385989418  0.5161114383714396  
  0.6592210044670226  0.0018725273391098  0.4812458658335441  
  0.8410841559708444  0.4993796160106857  0.5160978743779834  
  0.1581008662194812  0.4940180066002811  0.4904225456025874  
  0.4131931162894391  0.9904749509248100  0.3179338153570541  
  0.5892030596436755  0.0006714260220217  0.6856913997470814  
  0.9120893852903308  0.4958907772808355  0.3154460590034322  
  0.0858215475405861  0.4980108050157094  0.6868058706454072  
  0.5018926129563176  0.0007955948556163  0.0034929112562905  
  0.9964074597147632  0.4946748001902073  0.9997469214938300  
  0.5298129680468868  0.4965251111334671  0.5869923265992453  
  0.9711803183569576  0.9910484282913252  0.4353721357298962  
  0.3573240444841593  0.9956794816987248  0.9985159479484940  
  0.6474663590407496  0.0002575616850495  0.0048712702909375  
  0.8595916975362388  0.4964801688592053  0.9945241651090230  
  0.1343298181913161  0.4988522794566547  0.0060130622645706  
  0.0744627168744745  0.9167558405383528  0.1201818279404291  
