N    C    H    V    Mg   O    Li
   1.00000000000000     
  17.0941830625767999  -0.4100019063395310   0.6221196514247830
  -0.2386140139277320   7.8507962940695704  -0.1103216534287810
  -1.8078627053295400  -0.0360030275021635   7.2911858819864701
N    C    H    V    Mg   O    Li
12  20  40  2  2  4  1  
Direct
  0.4778271987623333  0.1579749843764559  0.7895123081972925  
  0.4983911472032857  0.7895725356646549  0.1860470530276183  
  0.5179182048189379  0.1679522193294293  0.1896669779251277  
  0.4706883482270862  0.7799515380918908  0.7942871441278213  
  0.9996379416678370  0.7006690879691853  0.7977858211748580  
  0.0116126499444636  0.3203004998599059  0.1785116223236376  
  0.0307028106613536  0.7031925052380603  0.1857470827419052  
  0.9812261728292736  0.3199208810930935  0.7858248445860481  
  0.2679383693558184  0.0225252868487647  0.1517525745152455  
  0.7143116009721110  0.9426143591650924  0.8377443035961584  
  0.7825250394829185  0.5778452765949244  0.1377153492252848  
  0.2448913588204673  0.4777665813752560  0.9022293962264564  
  0.4764036557214603  0.2644467068843455  0.6799769966352009  
  0.4953320100961559  0.6776097901145586  0.2875055472655043  
  0.5242930045318792  0.2783177553326106  0.2999626294923579  
  0.4750476872510931  0.6692325085492679  0.6905525377875275  
  0.0025646812782778  0.8110810775335334  0.6940114397620535  
  0.0104847643941323  0.2109283965352137  0.2837702380148301  
  0.0291712929591457  0.8121366783966433  0.2938871858924757  
  0.9775114053795636  0.2090536550952840  0.6772110404943289  
  0.3448690063858872  0.0112882703635456  0.1470806527310808  
  0.6393400186034607  0.9826733886761528  0.8431988330558995  
  0.8547423248688746  0.5211975303363978  0.1338794233367099  
  0.1656315270789009  0.4423349745866049  0.8883362438889627  
  0.2469966161972594  0.0621830980499935  0.3250105660072096  
  0.7480874927818834  0.9729536792106540  0.6778336936778194  
  0.7475301728284128  0.5640307803383365  0.2983071142454494  
  0.2853697875390560  0.3831512383466880  0.7805080630992702  
  0.2023292385160733  0.9895981494553252  0.9996256553356864  
  0.7613511502305006  0.8572870136734513  0.9912964064963400  
  0.7384310678627208  0.6644019042983588  0.9809540032525854  
  0.2898066472575224  0.5932861438605872  0.0210704320862354  
  0.2075473772613101  0.9584624875847928  0.3605247158016213  
  0.7989751734161279  0.0681990601871009  0.7082875734984078  
  0.7693897126892700  0.8540856533088282  0.6312585923221946  
  0.2147434178339970  0.1805212907497836  0.3135670645017350  
  0.6928120062122680  0.4793628882193229  0.2705129536524858  
  0.3312064287487014  0.4692232985500322  0.7412104707777083  
  0.3136481854293585  0.2731141787054594  0.8495877411304421  
  0.7314878930139488  0.6901302243773031  0.3387732672233914  
  0.1607202432252988  0.7118418258060519  0.5844815886891034  
  0.7932775741147935  0.1884975308321810  0.3455070623891752  
  0.8785343590931678  0.8760908632804528  0.4415173028470573  
  0.1353577992409070  0.1069519617867854  0.5551925156085753  
  0.6875103676726503  0.3354465434518364  0.6610446364957502  
  0.3317900891718248  0.7290602026071128  0.4861545152924212  
  0.3591981358201684  0.3732859138281169  0.3797081336464223  
  0.6216274587085426  0.6632638633246823  0.5159611046673258  
  0.1387977414638631  0.0543232908234544  0.6399701769325905  
  0.8653725896100043  0.9395234169108002  0.3681544636793249  
  0.7507387592681073  0.1718730658575079  0.2932525162582530  
  0.1980790455104801  0.7455153253260303  0.6489737380979536  
  0.6471759035285469  0.6188219672365419  0.5933891222365750  
  0.3547845973417067  0.4381700647409376  0.3042142744648519  
  0.2905908269759470  0.6982310225918391  0.4374075156000336  
  0.6737960747459987  0.3340349345983593  0.7496714779432829  
  0.1607477461778856  0.0928271848031731  0.9960620311788432  
  0.7493370974637181  0.9127415005513840  0.1170413604564713  
  0.8250654535723581  0.8800733796701199  0.9894048394179424  
  0.2265617353173145  0.9882790216295234  0.8752773663168414  
  0.6741348985185411  0.6432486012215284  0.9775404094554124  
  0.2610501877896014  0.6623187702732339  0.1129125503695980  
  0.3504768053965631  0.6257516174328808  0.0066183231359977  
  0.7524109501900179  0.6078531356352118  0.8578799331873459  
  0.3009510174454667  0.0782446611114189  0.4328951568377351  
  0.7019614912782968  0.0187690046689292  0.5681828187571387  
  0.7908667593185228  0.5136617129204776  0.4107094767817239  
  0.2415400414090828  0.3403589976263715  0.6584702786529312  
  0.3867242451229838  0.0241292633041505  0.2790154298830352  
  0.6049369196404982  0.0351784512767262  0.7178422922297689  
  0.8858236825249243  0.4641521242245356  0.2602798768244882  
  0.1368462367304336  0.3450876545294250  0.7881216273703602  
  0.4883323673332741  0.9757987944001432  0.9903108098976644  
  0.0060424909692984  0.5077431111651113  0.9869000186230278  
  0.4887156448397906  0.4716279173767454  0.4851129771782311  
  0.0069886624825048  0.0126717529734402  0.4893749137990488  
  0.3697670887248058  0.9854480343165638  0.9999352506762562  
  0.6104564312898547  0.9615205131973396  0.9826078309316680  
  0.8854533023347793  0.5323322581725132  0.9957632953113014  
  0.1256976369653217  0.5226541421364943  0.9885186025198044  
  0.1200050049502387  0.7754889009906234  0.0056168238145900  
