N    C    H    Cd   Ni   O    Li        
   1.00000000000000     
    18.6622318684460389   -0.6616875000423000    1.5018040535299702
    -0.0707671339286532    7.5389901462774231   -0.0540870803434341
    -1.6666524831581531    0.1087306871443627    7.3416868805781785
   N    C    H    Cd   Ni   O    Li
    12    20    40     2     2     4     1
Direct
  0.4924972092470959  0.2044722550238403  0.7759589532768393
  0.5177281821385041  0.7733327891399168  0.2156985323711439
  0.5152154634148584  0.2100315131695500  0.2173122282911794
  0.4878287919270560  0.7718545159552352  0.7691777257491330
  0.9740332943247447  0.7475336304835910  0.6962873494207860
  0.9982667794404453  0.3305961124154785  0.1488619938788040
  0.0232356711260764  0.7672922722288867  0.1460896160370939
  0.9785734660680612  0.3098834432306704  0.7047757216736523
  0.2881032861761993 -0.0954353735671429  0.2167394621130066
  0.7262186890819400 -0.0043344689536547  0.8061918589419876
  0.7620198282764705  0.5416356138749039  0.1113580508677600
  0.2376701172066391  0.5109545314542155  0.9154612191935085
  0.4956957628597091  0.3151172027871342  0.6669403783549512
  0.5104231728173888  0.6636766884772638  0.3234544478681873
  0.5114359920713889  0.3184596043421932  0.3256081850196621
  0.4916692147784207  0.6623708515446547  0.6619620171221159
  0.9765826679626487  0.8570283954994221  0.5851898015767766
  0.9952745352669460  0.2152474534545029  0.2538217879467774
  0.0146816573202631  0.8713782217109940  0.2564544613518230
  0.9853408596715784  0.2045049212046860  0.5955519176487954
  0.3532590839064442  0.9688569903954501  0.1741875299859730
  0.6512741354403281  0.9915700852462520  0.8281106590019446
  0.8343422582282572  0.5413602205538945  0.0990386235681670
  0.1662652253310875  0.4829163829809145  0.8760793436789407
  0.2649203783158305  0.9899542261365718  0.3740955496976511
  0.7409510649479903  0.9791723379045442  0.6173899718934438
  0.7378350283694384  0.5620804059629367  0.2865017282473762
  0.2852153622966019  0.4038104876414630  0.8257566761709725
  0.2387177768414416 -0.2185788519296258  0.1229676927115724
  0.7747591073309787  0.0096052649425422  0.9530797711004553
  0.7101920546250375  0.5279643195175118  0.9652326758151009
  0.2776251939329311  0.6317954021320241  0.0528883750427997
  0.2287683032283273  0.8963091754278995  0.4330970789338737
  0.7812132249906006  0.0815519909472389  0.5897558044786287
  0.7620306710441405  0.8480979976572635  0.5991766233191886
  0.2366308888009379  0.1125601249227497  0.3360733969545535
  0.6997522252408572  0.4516445058229523  0.3073531838269619
  0.3241897322098887  0.4914513090334946  0.7668243994993935
  0.3158381082114295  0.3138633964734852  0.9215238369560823
  0.7111102103312341  0.6886447429699766  0.2889771837473242
  0.1685119025670739  0.7775600233659010  0.6477296731249751
  0.7431888610150881  0.1911986462093718  0.3017723422343128
  0.8355771459112840  0.8448454925074697  0.3843332522183224
  0.1237848226736906  0.1047003736979770  0.6282139465636730
  0.7638581350293349  0.3686335464570031  0.6105622946175493
  0.2456735412145779  0.5408630885815401  0.4793498585495669
  0.3731050445749004  0.3835718088473974  0.4070038958988783
  0.6284356417156365  0.6093207349961590  0.5707583738766897
  0.1585390178952579  0.0863618733858203  0.6873018193630414
  0.8153819682628294  0.8836279154816641  0.3005786808694327
  0.7273152023552961  0.1354900831773041  0.2217437780450261
  0.2033806049215497  0.7930404049497755  0.7087173831173479
  0.6674650792519091  0.6317155114463001  0.6051823456247477
  0.3332693648224948  0.3666430776985705  0.3774127516491105
  0.2149122384818337  0.5607611883342276  0.4077192537813488
  0.7954775244011407  0.3935472766600233  0.6801830764560391
  0.1629198366615541  0.1618064605064454  0.0429883613512613
  0.8287512533561838  0.0177123525161741  0.9078071150098376
  0.9144969472397022  0.0494303248319881  0.2980683977143965
  0.1849384668698037  0.0830560465609097  0.0280806065034406
  0.6542208751182194  0.5317025118832021  0.9867036452339387
  0.3274945503137399  0.6738093591153487 -0.0000283264781474
  0.2951506272321133  0.5475239674351811  0.1717997834939891
  0.7270901076845916  0.5087673397973893  0.8355900339190679
  0.3124720573607668  1.0210465063909608  0.4740211985608647
  0.6913912814182496  0.9941397581154438  0.5218941400406633
  0.7844716082106954  0.5609019544617802  0.3920168957204951
  0.2532510456087727  0.3240102752815979  0.7192536672346419
  0.3853469737896478  1.0504550858460442  0.2807920527606140
  0.6140744469442773  0.9857513144686659  0.6997250828758528
  0.8698123707473592  0.5479195685658812  0.2291372292080320
  0.1500240937060912  0.3848724627541292  0.7681459919541922
  0.4973534819091679  0.9884402141919177  0.9961004143281385
  0.9825738831148438  0.5287341953615338  0.9152942897499233
  0.5018122442215590  0.4896688409367074  0.4946224516653297
  0.9883970603998350  0.0359101069104552  0.4165308378411844
  0.3748939861715800 -0.0554708733467934  0.0255062015301907
  0.6306795244271861 -0.0035796307629266  0.9740975368322590
  0.8577055859615982  0.5341389947021955  0.9509724589591730
  0.1185870588036802  0.5563054649611133  0.9478215650417597
  0.1277227677916779  0.7542564873084033  0.0986970442684997
 
             NaN             NaN             NaN
             NaN             NaN             NaN
             NaN             NaN             NaN
             NaN             NaN             NaN
             NaN             NaN             NaN
             NaN             NaN             NaN
             NaN             NaN             NaN
             NaN             NaN             NaN
             NaN             NaN             NaN
             NaN             NaN             NaN
             NaN             NaN             NaN
             NaN             NaN             NaN
             NaN             NaN             NaN
             NaN             NaN             NaN
             NaN             NaN             NaN
             NaN             NaN             NaN
             NaN             NaN             NaN
             NaN             NaN             NaN
             NaN             NaN             NaN
             NaN             NaN             NaN
             NaN             NaN             NaN
             NaN             NaN             NaN
             NaN             NaN             NaN
             NaN             NaN             NaN
             NaN             NaN             NaN
             NaN             NaN             NaN
             NaN             NaN             NaN
             NaN             NaN             NaN
             NaN             NaN             NaN
             NaN             NaN             NaN
             NaN             NaN             NaN
             NaN             NaN             NaN
             NaN             NaN             NaN
             NaN             NaN             NaN
             NaN             NaN             NaN
             NaN             NaN             NaN
             NaN             NaN             NaN
             NaN             NaN             NaN
             NaN             NaN             NaN
             NaN             NaN             NaN
             NaN             NaN             NaN
             NaN             NaN             NaN
             NaN             NaN             NaN
             NaN             NaN             NaN
             NaN             NaN             NaN
             NaN             NaN             NaN
             NaN             NaN             NaN
             NaN             NaN             NaN
             NaN             NaN             NaN
             NaN             NaN             NaN
             NaN             NaN             NaN
             NaN             NaN             NaN
             NaN             NaN             NaN
             NaN             NaN             NaN
             NaN             NaN             NaN
             NaN             NaN             NaN
             NaN             NaN             NaN
             NaN             NaN             NaN
             NaN             NaN             NaN
             NaN             NaN             NaN
             NaN             NaN             NaN
             NaN             NaN             NaN
             NaN             NaN             NaN
             NaN             NaN             NaN
             NaN             NaN             NaN
             NaN             NaN             NaN
             NaN             NaN             NaN
             NaN             NaN             NaN
             NaN             NaN             NaN
             NaN             NaN             NaN
             NaN             NaN             NaN
             NaN             NaN             NaN
             NaN             NaN             NaN
             NaN             NaN             NaN
             NaN             NaN             NaN
             NaN             NaN             NaN
             NaN             NaN             NaN
             NaN             NaN             NaN
             NaN             NaN             NaN
             NaN             NaN             NaN
             NaN             NaN             NaN
