N    C    H    Pt   Ni   O    Li        
   1.00000000000000     
    20.4297949734323936    0.0295117090049597    0.5049003127784411
     0.0903309348504243    7.2554246005444707    0.0088661518148060
    -2.1555883590301894    0.0264286696145678    6.5122326162115236
   N    C    H    Pt   Ni   O    Li
    12    20    40     2     2     4     1
Direct
  0.4947043944898930  0.1982109228565408  0.8011352456619789
  0.4964512595922371  0.8096338035018957  0.2018582645405407
  0.5011947305464243  0.1985497609381091  0.2052298914673441
  0.4973847472779329  0.8089328076542509  0.8040889439443556
  0.0068553460476572  0.6987899391971196  0.8153855483356074
  0.0039382376268605  0.3084931792191015  0.2101702059534316
  1.0009917833041229  0.6976105487991096  0.2089469582490115
  1.0002903454404486  0.3097640610167460  0.8084397872510390
  0.2562503491904454  0.0115162407070240  0.2674685151569828
  0.7530316830496329  0.9975681550793031  0.7948701752752250
  0.7447154959605747  0.5017238040616457  0.2050621807603680
  0.2416579952110330  0.4990867413738764  0.7346491010503945
  0.4938418073857733  0.3192811376836223  0.6868079417770634
  0.4956143212739049  0.6881732432399743  0.3141579723060114
  0.5021892229788867  0.3195646184229139  0.3193889677180141
  0.4985043338767845  0.6876997192050311  0.6919301830018294
  0.0066946384122549  0.8202381274463684  0.7017121702570028
  0.0044227518533662  0.1869996115284470  0.3236734986079142
  0.9992807380832763  0.8191131323670183  0.3202777177544281
  0.9982095105589179  0.1886751525887817  0.6935008628460331
  0.2815816491294645  0.9886088042525255  0.1078256810091259
  0.7121092402707112  0.9940148174607117  0.9247445853145965
  0.7851831171039513  0.5084545817400072  0.0739236206909382
  0.1917589797227091  0.5157043763772370  0.8306561645565533
  0.3012190959753167  0.9979373448382171  0.4753215411089476
  0.7212666048318593  0.9975140140952591  0.5743761558682966
  0.7772319567151830  0.4945107663507617  0.4250487992302034
  0.2198942173662497  0.4698466250559456  0.5136611837543219
  0.1841137355905014  0.0200868427639851  0.2336495250863098
  0.8221115802808097  0.9974655796575944  0.8679747862231969
  0.6754386873649748  0.5012927410701566  0.1332116192675545
  0.3089795810241823  0.5264321760232363  0.8322178700568349
  0.2900621479818499  0.8729491033247374  0.5500773309444047
  0.7380977999206793  0.1156064074152009  0.5029631055164765
  0.7355139639463772  0.8720100563571488  0.5071118621213137
  0.2932882492019732  0.1159129105832665  0.5661563180196597
  0.7629816846305818  0.3686861448918595  0.4900053035915081
  0.2235910388458119  0.5988129892403526  0.4340795699237198
  0.2520717257073897  0.3641927892738457  0.4723469417286013
  0.7611166209154162  0.6123615305252903  0.5003109337208191
  0.1292660556027673  0.7965323941499030  0.5610584867464260
  0.8693160340555194  0.1906691829293127  0.3790645090190710
  0.8683762832236238  0.8081142400184126  0.4201349018689723
  0.1267885243585317  0.1648420619828928  0.6328655479771876
  0.6316320797287653  0.3085617868350639  0.6100283159948418
  0.3646239314151751  0.6578233591287626  0.3733125262557223
  0.3690641047703824  0.3213752837676289  0.3442874810797820
  0.6280910048306975  0.6922951390997709  0.5929599218187777
  0.1609944317324928  0.1443822943591026  0.7088224871992992
  0.8361573576333666  0.8431591267396708  0.3444092005939563
  0.8359497290263096  0.1582989265598770  0.3089966005605385
  0.1643749459607534  0.8291247057250882  0.6168295537238342
  0.6608548272913871  0.6581864307950857  0.6669852453514132
  0.3352510125958200  0.3084422502970033  0.2656425671059224
  0.3276550378531661  0.6536882734124558  0.3124475932635311
  0.6643731746945958  0.3430084288132624  0.6815661238057658
  0.1704736627087374  0.0429521476926887  0.3735602862025060
  0.8474945915109300  0.9770209405667836  1.0259212940865536
  0.8532899277145723  1.0213617099681929  0.7701605608458856
  0.1587618754629010  0.1157982535856263  0.1098022068670318
  0.6523110084560584  0.5069019080085867  0.9697543768574926
  0.3454588978385965  0.5134416885289910  0.7454065565441016
  0.3236338412562535  0.5567609971804919 -0.0063826009514712
  0.6461632189000950  0.4950589421556005  0.2418320898035096
  0.3546750204562720  0.9917153381008029  0.4741589323657879
  0.6656449443101129  0.0044278551675128  0.5416431530719459
  0.8328133256539351  0.4959501542199783  0.4562104365169014
  0.1667275438782093  0.4250952346869146  0.4655139705396051
  0.3377043025730426  0.9891071084560816  0.1437762040268966
  0.6570022549660264  0.9924252798816029  0.8418328764346846
  0.8404190687392991  0.5087002998911623  0.1554476381504751
  0.1405212364071147  0.4805334336753159  0.7332324535269895
  0.4974773234629577  0.0039572919867078  0.0032029564489507
  0.0031964476941514  0.5035689256204735  0.0108932865556663
  0.4977401386015152  0.5036711626448712  0.5032429627179259
  0.0016740277898420  0.0036690936374970  0.5095112669657716
  0.2427221694193859 -0.0341790996947606  0.9287353042365516
  0.7348574414584346  0.9939595156808855  0.1125603880137351
  0.7618906819258628  0.5135599057454067  0.8862047738314213
  0.2024330368803271  0.5690226014087807  0.0111927096836043
  0.1693209146558705  0.8184301335056633 -0.0014449183656448
 
             NaN             NaN             NaN
             NaN             NaN             NaN
             NaN             NaN             NaN
             NaN             NaN             NaN
             NaN             NaN             NaN
             NaN             NaN             NaN
             NaN             NaN             NaN
             NaN             NaN             NaN
             NaN             NaN             NaN
             NaN             NaN             NaN
             NaN             NaN             NaN
             NaN             NaN             NaN
             NaN             NaN             NaN
             NaN             NaN             NaN
             NaN             NaN             NaN
             NaN             NaN             NaN
             NaN             NaN             NaN
             NaN             NaN             NaN
             NaN             NaN             NaN
             NaN             NaN             NaN
             NaN             NaN             NaN
             NaN             NaN             NaN
             NaN             NaN             NaN
             NaN             NaN             NaN
             NaN             NaN             NaN
             NaN             NaN             NaN
             NaN             NaN             NaN
             NaN             NaN             NaN
             NaN             NaN             NaN
             NaN             NaN             NaN
             NaN             NaN             NaN
             NaN             NaN             NaN
             NaN             NaN             NaN
             NaN             NaN             NaN
             NaN             NaN             NaN
             NaN             NaN             NaN
             NaN             NaN             NaN
             NaN             NaN             NaN
             NaN             NaN             NaN
             NaN             NaN             NaN
             NaN             NaN             NaN
             NaN             NaN             NaN
             NaN             NaN             NaN
             NaN             NaN             NaN
             NaN             NaN             NaN
             NaN             NaN             NaN
             NaN             NaN             NaN
             NaN             NaN             NaN
             NaN             NaN             NaN
             NaN             NaN             NaN
             NaN             NaN             NaN
             NaN             NaN             NaN
             NaN             NaN             NaN
             NaN             NaN             NaN
             NaN             NaN             NaN
             NaN             NaN             NaN
             NaN             NaN             NaN
             NaN             NaN             NaN
             NaN             NaN             NaN
             NaN             NaN             NaN
             NaN             NaN             NaN
             NaN             NaN             NaN
             NaN             NaN             NaN
             NaN             NaN             NaN
             NaN             NaN             NaN
             NaN             NaN             NaN
             NaN             NaN             NaN
             NaN             NaN             NaN
             NaN             NaN             NaN
             NaN             NaN             NaN
             NaN             NaN             NaN
             NaN             NaN             NaN
             NaN             NaN             NaN
             NaN             NaN             NaN
             NaN             NaN             NaN
             NaN             NaN             NaN
             NaN             NaN             NaN
             NaN             NaN             NaN
             NaN             NaN             NaN
             NaN             NaN             NaN
             NaN             NaN             NaN
