N    C    H    Ni   Pd   O    Li
   1.00000000000000     
  19.0265090071634013  -0.4012956690925130   2.2928843123484000
  -0.1204390479687810   7.7676929256343499   0.4783113968241120
  -1.3971445073600499   0.4327676617181080   7.1447423945771700
N    C    H    Ni   Pd   O    Li
12  20  40  2  2  4  1  
Direct
  0.4746726892127277  0.1811958510141224  0.7625158483309791  
  0.5060566739822758  0.7953935564208258  0.1327574224585517  
  0.5185455957245098  0.1850796843247960  0.1589022813935404  
  0.4519763045428025  0.7503612770027518  0.6726587019459171  
  0.9808456902063420  0.6178508895541530  0.8030514270478196  
  0.9828078041283964  0.2451831120025631  0.1699946187981153  
  0.0452285065669964  0.7179170954792287  0.2317820860703444  
  0.9684295482114668  0.2380783871460290  0.7762623167090862  
  0.3103671561559269  0.0001924576714350  0.2733551777124992  
  0.6723159745648427  0.9912830091418510  0.6603472254262662  
  0.8142576540159370  0.5312998120819875  0.3186041648240456  
  0.2644453476649217  0.5170517201867901  0.8534786093920870  
  0.4786268828999208  0.2845825928453968  0.6327098741298316  
  0.5029985230301900  0.6655317253133327  0.2314833734240482  
  0.5115895206964235  0.2912287824795666  0.2569492157206180  
  0.4672545813922261  0.6428365787975076  0.5839318643559477  
  0.9876877214324784  0.7482270240775954  0.7045456007729393  
  0.9906765919510084  0.1423743353070182  0.3014474973907137  
  0.0240397529233239  0.8004175281161657  0.3387255455048984  
  0.9741355577900740  0.1274767724943490  0.6827048071359217  
  0.3762708453518445  0.9918479016105892  0.2146820629302783  
  0.6065219409399677  0.9951532035138256  0.7213972643767133  
  0.8758978319872180  0.5009743807416039  0.2456249535177747  
  0.1947296551413800  0.4832295904353423  0.8747854189100344  
  0.3020167081158104  0.9778013409015428  0.4734327287687612  
  0.6798438114936166  0.0115289552930060  0.4601654707085044  
  0.8125174796263752  0.5128656890960225  0.5207359032852702  
  0.3045065786577958  0.3950583160227557  0.7669634583537264  
  0.2533099563524149  0.0359839921060231  0.1533682171262279  
  0.7305999776476169  0.9723895622140496  0.7794464339711012  
  0.7557192347294244  0.5826452847336946  0.2108599904626725  
  0.2980014299367246  0.6587561906000596  0.9129087500149340  
  0.2591753239268809  0.8848772440452726  0.5042110434346876  
  0.7106074883257049  0.1294958548528445  0.4202794684967036  
  0.7067105811748288  0.8998034672079349  0.4222027904249399  
  0.2896210820359283  0.1026243701143583  0.5173227333367413  
  0.7680097105681039  0.4291075902181601  0.5627522063919962  
  0.3341827957993943  0.4659801080776728  0.6580409646654367  
  0.3412256701602556  0.3241046724525748  0.8696482400926467  
  0.8072203310351020  0.6401077963290732  0.5682426001267755  
  0.1410722531954519  0.0076744358382403  0.7392652010343758  
  0.7966547574606098  0.1790163741448087  0.1337928769318588  
  0.8626968807642938  0.9161012027351156  0.3162812273746064  
  0.1628439397725254  0.3014602846957818  0.4179440051510075  
  0.6440548536020473  0.3640274980217069  0.8824402459721495  
  0.2199492446163448  0.6152310236865882  0.3987690168136989  
  0.3438635804802384  0.4061693156367672  0.3010726841125480  
  0.6244866224396999  0.6076619579076183  0.5450712348673783  
  0.1307957835257140  0.2449828804272914  0.4322777797451019  
  0.8276950529002323  0.8919089032019579  0.2713972612606348  
  0.7618628140396766  0.2214947042730306  0.1123363808881204  
  0.1648916972609776  0.9398336586504534  0.7900674350284477  
  0.6583151521693237  0.6175102346722520  0.6023473818236621  
  0.3057717847527186  0.3929489030160964  0.2717623177141843  
  0.1817048197663674  0.6354884444486976  0.3842056331428968  
  0.6826953025630980  0.3555377236516798  0.8764831566062545  
  0.2024252823379694  0.0372231951091731  0.2087497264529352  
  0.7236900333826193  0.9595921003070328  0.9266599072168746  
  0.7814085205056219  0.9770330281864654  0.7225501831809473  
  0.2612234237162678  0.0570172726629685  0.0066695950118484  
  0.7078611127117527  0.5963611103529805  0.2776442845062357  
  0.3528254259070251  0.6810276493222267  0.8873525010600940  
  0.2678700054812095  0.7427550387618282  0.9836963249584040  
  0.7585892831556132  0.5994744655119622  0.0618900096773811  
  0.3506180509917968  0.9294822075945998  0.5482857562093824  
  0.6281796424885587  0.0214062013880160  0.3852518499032060  
  0.8611014184472259  0.4548145363320281  0.5851484466333811  
  0.2680136491980925  0.3031513699690032  0.7061582778128276  
  0.4171281407159735  0.9617105813440816  0.3266901747900461  
  0.5641602731082329  0.0056857728068149  0.6111287340639443  
  0.9189381245731016  0.4618091481435990  0.3486686018980076  
  0.1745959802608174  0.3644305976636662  0.8194295541552499  
  0.4948685940732009  0.0140468560681557  0.9780735719159198  
  0.9574927782987546  0.4003288691912598  0.9502895977259228  
  0.4912224291617659  0.4670392298910027  0.4238638460075568  
  0.9939983025219846  0.9544039135870500  0.5128200702682303  
  0.3882301924214069  0.0161045887754261  0.0462777226222996  
  0.5962751932163094  0.9875318469581744  0.8899631228585749  
  0.8819903517596451  0.5154847316424804  0.0740954023588258  
  0.1573295996399410  0.5796709217578727  0.9494215690388168  
  0.0679831949078469  0.6209393951777341  0.0119489708550164  
