H    Li   C    N    O    Hg   Pt        
   1.00000000000000     
     7.3802119018479386   -0.8617679658009353    0.6547905827314794
    -0.1672678657587952    7.4914564363890133    0.4236960566147205
     0.2785268444181007    0.3856086312538016    7.1794505192606435
   H    Li   C    N    O    Hg   Pt
    14     1    10     6     2     1     1
Selective dynamics
Direct
  0.5807890947656369  0.9155202699825941  0.6738560755968025   T   T   T
  0.2332769924447995  0.0247512585603875  0.3126890536458556   T   T   T
  0.4001637103190051  0.2216575320209735  0.2530879271600203   T   T   T
  0.2579278363236833  0.1842459158943554  0.4783627758867132   T   T   T
  0.6136833842654486  0.0006964928316738  0.1919352838198522   T   T   T
  0.4627406689865602  0.8020832402841718  0.2942715270353877   T   T   T
  0.6715019963262241  0.8643862771488028  0.3912461271757613   T   T   T
  0.3362083259293340  0.5125609234632712  0.5257441601409529   T   T   T
  0.5436232026059628  0.3364497875835625  0.9656486429095941   T   T   T
  0.6008794587157210  0.5720197115494686  0.9901019163465915   T   T   T
  0.7146424052655739  0.4770756501732046  0.7995879598129587   T   T   T
  0.3173126370354064  0.7062600624452543  0.9152902706594490   T   T   T
  0.2129554303218559  0.4740721446328878  0.9786385935887433   T   T   T
  0.1871644335275007  0.5941372672725007  0.7587393596681542   T   T   T
  0.8116653227692641  0.4510770306593300  0.3465535416261696   T   T   T
  0.9126470556419032  0.8162860586749249  0.0430786280472271   T   T   T
  0.9634147108845446  0.2425848584316653  0.6611541849013094   T   T   T
  0.9499982498657225  0.8694477032576218  0.6593639946201535   T   T   T
  0.9149744675058556  0.1918458493828292  0.0524901561463213   T   T   T
  0.4800662425516177  0.0057193988163540  0.6395684366682594   T   T   T
  0.3321073136200757  0.1202338447394779  0.3703723777461644   T   T   T
  0.5605753245464955  0.9189897360341687  0.3281454287276134   T   T   T
  0.4608700076553631  0.4888754888280200  0.5917085305654929   T   T   T
  0.5847706601906536  0.4736395150782836  0.8892262861526931   T   T   T
  0.2825352425618649  0.5759322470804118  0.8616621450357558   T   T   T
  0.8946105425992784  0.6846498091037985  0.1528647206666175   T   T   T
  0.9782684821329208  0.3653029987133447  0.5417070791874327   T   T   T
  0.9455800393011567  0.7670382624389829  0.5467702731274779   T   T   T
  0.8874569856324547  0.2878692315683541  0.1672393687513542   T   T   T
  0.4642508794225525  0.0222581384456571  0.4515593971039718   T   T   T
  0.4465737272654101  0.5180402440476296  0.7724549352291430   T   T   T
  0.3964258749381097  0.0806657444957296  0.7603006291843395   T   T   T
  0.5935322160895994  0.4432654959019459  0.4978009266258319   T   T   T
  0.1643200485037226  0.6622959978963491  0.3281384741798249   T   T   T
  0.9398170294887492  0.0311098125620277  0.8552058122600105   T   T   T
 
  0.00000000E+00  0.00000000E+00  0.00000000E+00
  0.00000000E+00  0.00000000E+00  0.00000000E+00
  0.00000000E+00  0.00000000E+00  0.00000000E+00
  0.00000000E+00  0.00000000E+00  0.00000000E+00
  0.00000000E+00  0.00000000E+00  0.00000000E+00
  0.00000000E+00  0.00000000E+00  0.00000000E+00
  0.00000000E+00  0.00000000E+00  0.00000000E+00
  0.00000000E+00  0.00000000E+00  0.00000000E+00
  0.00000000E+00  0.00000000E+00  0.00000000E+00
  0.00000000E+00  0.00000000E+00  0.00000000E+00
  0.00000000E+00  0.00000000E+00  0.00000000E+00
  0.00000000E+00  0.00000000E+00  0.00000000E+00
  0.00000000E+00  0.00000000E+00  0.00000000E+00
  0.00000000E+00  0.00000000E+00  0.00000000E+00
  0.00000000E+00  0.00000000E+00  0.00000000E+00
  0.00000000E+00  0.00000000E+00  0.00000000E+00
  0.00000000E+00  0.00000000E+00  0.00000000E+00
  0.00000000E+00  0.00000000E+00  0.00000000E+00
  0.00000000E+00  0.00000000E+00  0.00000000E+00
  0.00000000E+00  0.00000000E+00  0.00000000E+00
  0.00000000E+00  0.00000000E+00  0.00000000E+00
  0.00000000E+00  0.00000000E+00  0.00000000E+00
  0.00000000E+00  0.00000000E+00  0.00000000E+00
  0.00000000E+00  0.00000000E+00  0.00000000E+00
  0.00000000E+00  0.00000000E+00  0.00000000E+00
  0.00000000E+00  0.00000000E+00  0.00000000E+00
  0.00000000E+00  0.00000000E+00  0.00000000E+00
  0.00000000E+00  0.00000000E+00  0.00000000E+00
  0.00000000E+00  0.00000000E+00  0.00000000E+00
  0.00000000E+00  0.00000000E+00  0.00000000E+00
  0.00000000E+00  0.00000000E+00  0.00000000E+00
  0.00000000E+00  0.00000000E+00  0.00000000E+00
  0.00000000E+00  0.00000000E+00  0.00000000E+00
  0.00000000E+00  0.00000000E+00  0.00000000E+00
  0.00000000E+00  0.00000000E+00  0.00000000E+00
