H    Li   C    N    O    Co   Zn        
   1.00000000000000     
     7.4202681923598348   -1.0589053300583680    0.5114661298115601
    -0.3679888969165837    7.2173048751207647    0.1177253314272429
     0.1735772511421152    0.0716850250351462    6.7599727807132428
   H    Li   C    N    O    Co   Zn
    14     1    10     6     2     1     1
Selective dynamics
Direct
  0.5642912434416272 -0.0154498228172651  0.7118930411356466   T   T   T
  0.2356276477647627 -0.0439703467261091  0.2750371162747602   T   T   T
  0.3659606962891390  0.1883648009392981  0.2360474968172947   T   T   T
  0.2032978018472086  0.1320735272073500  0.4486200335328525   T   T   T
  0.6699170666723058  0.1027136132774420  0.2466400330034359   T   T   T
  0.5490273338691058  0.8649253118347892  0.2469548405916637   T   T   T
  0.6967731419547172  0.9393929008754646  0.4365781698322992   T   T   T
  0.2509378901934604  0.6187821146389990  0.6248780325091978   T   T   T
  0.5651719016836068  0.3225231495395421  0.8996186610309738   T   T   T
  0.7147729426580235  0.5470543854807819  0.8411449592500897   T   T   T
  0.6454134065313498  0.3964282122921000  0.6480989645033970   T   T   T
  0.4642675387452084  0.7161251135958882  0.0109568639444454   T   T   T
  0.3437830315883050  0.4819332551481705  0.0824650764149210   T   T   T
  0.2377102074254621  0.6375366753038091  0.9463254534995642   T   T   T
  0.6576230085775233  0.5580818976257943  0.2830695912414770   T   T   T
  0.8866285606220099  0.7856084222293306  0.0530962401793374   T   T   T
  0.9103032285358666  0.1818971143143188  0.6493268560160425   T   T   T
  0.0014915623311870  0.7937175073835723  0.6351562357670013   T   T   T
  0.0252396971852277  0.2053098000877509  0.0444145054692539   T   T   T
  0.4399157890018174  0.0232324755921421  0.6614232904654536   T   T   T
  0.3037678776149503  0.0789115714808801  0.3505573329551936   T   T   T
  0.5985043235378875  0.9806556704117380  0.3420738105738741   T   T   T
  0.3764635528740416  0.5612246562809002  0.6085809409785828   T   T   T
  0.6013526665634396  0.4441596981517793  0.7930601035106369   T   T   T
  0.3674398955129491  0.5943034248286223  0.9646759574251829   T   T   T
  0.9251417288019209  0.6675809979339659  0.1576359728994054   T   T   T
  0.9371895308725610  0.3080596147914016  0.5301087387163554   T   T   T
  0.9713465839610127  0.6718513951220528  0.5233784187478759   T   T   T
  0.9863039254505219  0.3191238183018587  0.1532352695726957   T   T   T
  0.4443718742802061  0.0280882038581096  0.4621922153310216   T   T   T
  0.4425424329061868  0.5288227495982536  0.7798614630470658   T   T   T
  0.3181203291791269  0.0599417343588313  0.7840090275501369   T   T   T
  0.4455170638754853  0.5307502150919856  0.4380139236030645   T   T   T
 -0.0426918097640292  0.4924884205016816  0.3387724261595586   T   T   T
 -0.0061936725841532  0.0008017214647883  0.8386639374502469   T   T   T
 
  0.00000000E+00  0.00000000E+00  0.00000000E+00
  0.00000000E+00  0.00000000E+00  0.00000000E+00
  0.00000000E+00  0.00000000E+00  0.00000000E+00
  0.00000000E+00  0.00000000E+00  0.00000000E+00
  0.00000000E+00  0.00000000E+00  0.00000000E+00
  0.00000000E+00  0.00000000E+00  0.00000000E+00
  0.00000000E+00  0.00000000E+00  0.00000000E+00
  0.00000000E+00  0.00000000E+00  0.00000000E+00
  0.00000000E+00  0.00000000E+00  0.00000000E+00
  0.00000000E+00  0.00000000E+00  0.00000000E+00
  0.00000000E+00  0.00000000E+00  0.00000000E+00
  0.00000000E+00  0.00000000E+00  0.00000000E+00
  0.00000000E+00  0.00000000E+00  0.00000000E+00
  0.00000000E+00  0.00000000E+00  0.00000000E+00
  0.00000000E+00  0.00000000E+00  0.00000000E+00
  0.00000000E+00  0.00000000E+00  0.00000000E+00
  0.00000000E+00  0.00000000E+00  0.00000000E+00
  0.00000000E+00  0.00000000E+00  0.00000000E+00
  0.00000000E+00  0.00000000E+00  0.00000000E+00
  0.00000000E+00  0.00000000E+00  0.00000000E+00
  0.00000000E+00  0.00000000E+00  0.00000000E+00
  0.00000000E+00  0.00000000E+00  0.00000000E+00
  0.00000000E+00  0.00000000E+00  0.00000000E+00
  0.00000000E+00  0.00000000E+00  0.00000000E+00
  0.00000000E+00  0.00000000E+00  0.00000000E+00
  0.00000000E+00  0.00000000E+00  0.00000000E+00
  0.00000000E+00  0.00000000E+00  0.00000000E+00
  0.00000000E+00  0.00000000E+00  0.00000000E+00
  0.00000000E+00  0.00000000E+00  0.00000000E+00
  0.00000000E+00  0.00000000E+00  0.00000000E+00
  0.00000000E+00  0.00000000E+00  0.00000000E+00
  0.00000000E+00  0.00000000E+00  0.00000000E+00
  0.00000000E+00  0.00000000E+00  0.00000000E+00
  0.00000000E+00  0.00000000E+00  0.00000000E+00
  0.00000000E+00  0.00000000E+00  0.00000000E+00
