N    C    H    Hg   Cd   O    Li        
   1.00000000000000     
    17.9056511964671827   -0.1255269552999210   -0.1617856001576410
     0.5338706636432898    8.6887825537215058    0.1343297966875410
    -1.0678200650394374   -0.1070585472012158    7.6448137298496883
   N    C    H    Hg   Cd   O    Li
    12    20    40     2     2     4     1
Direct
  0.5954019796654488  0.2579961726425663  0.8275672247192959
  0.5583947515583858  0.8313930626376729  0.3481880697016402
  0.4031815816885702  0.3046617552034629  0.2295726255518568
  0.4452348032864099  0.8423864271810948  0.6581018776256403
  1.0137880651199680  0.6819156034187541  0.7898820566073980
  0.0225766712511237  0.3001780019583537  0.1896251213722574
  0.0282558742438878  0.8105224631252106  0.1778533129043474
  0.9301367846307816  0.3158629454055852  0.6642314129062399
  0.2695245357213966  0.9719009952218853  0.2266103114491418
  0.7326081894579362  1.0186970913886289  0.7789556506778730
  0.7596569187585458  0.5115530947564216  0.1943239697117930
  0.2586108761076040  0.4734016789439600  0.8529367331358743
  0.5690540434575585  0.3519339399695972  0.7253175046057511
  0.5505225228068462  0.7079459347840378  0.4006748171013288
  0.4378014066482074  0.3802497363650686  0.3351773073348042
  0.4480114400902366  0.7091153954096463  0.6872763661873211
  1.0147903927772204  0.7929927222875327  0.7026417529082982
  0.0320472063844598  0.2280318201702043  0.3176827192725603
 -0.0129967003206640  0.8683238422502647  0.2667531847274653
  0.9277175319588031  0.1994170032207782  0.5861707645711164
  0.3450770993521262  0.9701932637495843  0.1678319274221587
  0.6700982404275323  0.9283468227971035  0.8070154415951621
  0.8298597320662798  0.4885361408478047  0.1548790629782738
  0.1843773700984329  0.4664057223885283  0.8735779574904919
  0.2672020152329759  1.0021376723945785  0.4153707777584745
  0.7305564711732778  0.0736453746465147  0.5984079880924830
  0.7491103235251096  0.5424526671247026  0.3779202912821665
  0.2933769630201576  0.3566146934906737  0.7471732861392477
  0.2116306330484121  0.9254420430998026  0.1242993532531770
  0.7885954252712702  1.0451270247268101  0.9043135801358720
  0.6952467667815292  0.5264390501943585  0.0714507692883521
  0.3004535397940321  0.5851352637516288  0.9337530353430717
  0.2444782448285356  0.9026234213699185  0.4711157003285507
  0.7811262754302719  0.1373777826950033  0.6002384459907445
  0.7324882223236138  0.9765617675811520  0.5071051376392138
  0.2316328930241539  0.1064401058125472  0.4286956317277972
  0.7212722975044585  0.4504016508123383  0.4360446351086746
  0.3296939781310591  0.4126568088054122  0.6669277727265065
  0.3272429848804038  0.2696552002392053  0.8323776144629176
  0.7137878149227808  0.6495741205130539  0.3764871603212036
  0.1555401629674454  0.7835496890481706  0.6798831335403153
  0.7472997312844852  0.2297750704182002  0.2427745857201990
  0.8158345939149105  0.8183692691080099  0.3203798838660469
  0.1302969741012836  0.1385185006131268  0.6024220311482618
  0.7098935690761965  0.3622066891447915  0.7649734328247115
  0.3127634648807838  0.6278904968276021  0.4317724132705453
  0.2836662380415271  0.3334278248618288  0.2296688424462112
  0.7085079041839516  0.6824566731122572  0.6543109796372530
  0.1307883800843373  0.1046844621600580  0.6918733594215535
  0.7956765345601745  0.8270615569453470  0.2275684103339762
  0.7415048073484228  0.1483189273459587  0.2130327228147757
  0.1917604470079857  0.8075514332201150  0.7319582425836662
  0.7458388869541518  0.6842303620574447  0.7115786396469893
  0.2417610075976258  0.3287680972130618  0.2298050795668226
  0.2824030377325722  0.6131345285077459  0.3568115192212667
  0.7508472742723713  0.3643581975917377  0.7564876803757148
  0.0358842380111214  0.1668947783876462  0.4405688599999639
  0.8585492091542827  0.8472416894839385  0.5763474337768706
  0.7733171393988529  0.9884057318805506  1.0235279112899451
  0.4542738271148448 -0.0468294197961800 -0.3701823278969069
  0.6461292221911339  0.4706395383412102  0.1021285782795169
  0.3600837734033182  0.5804889030779909  0.9241249961418083
  0.2705656379956206  0.6688028685939014  0.0075684815144102
  0.6942001043141365  0.5934685148072871 -0.0470696960934916
  0.3241095168838486  1.0169166562997298  0.4835647487288849
  0.6799763194412037  0.1489755935588727  0.5588978643899852
  0.8034102629432740  0.5597255514780490  0.4581304281526670
  0.2488359277293300  0.3037814040241654  0.6581546960871560
  0.3903941265556627  0.9835051403070525  0.2794991351064016
  0.6321434990057567 -0.0912490372104404  0.6832025352996014
  0.8727397872069299  0.4670530858899649  0.2694191242314793
  0.1555734606558412  0.3745062501679957  0.7957895998220149
  0.5133343396794825  0.0413493754871484  0.0189993135382550
  0.9492917043237565  0.5066560406775479  0.8792533205525233
  0.5168946771498792  0.5017946696434611  0.5195177224536699
  0.9278337047617868 -0.0554774703299593  0.4933766455654349
  0.3529722548540153  0.9471383523738568  0.0182905860143526
  0.6633161775906941  0.8751324673872206  0.9481441147019404
  0.8447113191121208  0.4825627033076070  0.9983813146898542
  0.1524334185118069  0.5572432931137866  0.9693205801683773
  0.1135725019451276  0.7562297245227240  0.0407616754408303
 
             NaN             NaN             NaN
             NaN             NaN             NaN
             NaN             NaN             NaN
             NaN             NaN             NaN
             NaN             NaN             NaN
             NaN             NaN             NaN
             NaN             NaN             NaN
             NaN             NaN             NaN
             NaN             NaN             NaN
             NaN             NaN             NaN
             NaN             NaN             NaN
             NaN             NaN             NaN
             NaN             NaN             NaN
             NaN             NaN             NaN
             NaN             NaN             NaN
             NaN             NaN             NaN
             NaN             NaN             NaN
             NaN             NaN             NaN
             NaN             NaN             NaN
             NaN             NaN             NaN
             NaN             NaN             NaN
             NaN             NaN             NaN
             NaN             NaN             NaN
             NaN             NaN             NaN
             NaN             NaN             NaN
             NaN             NaN             NaN
             NaN             NaN             NaN
             NaN             NaN             NaN
             NaN             NaN             NaN
             NaN             NaN             NaN
             NaN             NaN             NaN
             NaN             NaN             NaN
             NaN             NaN             NaN
             NaN             NaN             NaN
             NaN             NaN             NaN
             NaN             NaN             NaN
             NaN             NaN             NaN
             NaN             NaN             NaN
             NaN             NaN             NaN
             NaN             NaN             NaN
             NaN             NaN             NaN
             NaN             NaN             NaN
             NaN             NaN             NaN
             NaN             NaN             NaN
             NaN             NaN             NaN
             NaN             NaN             NaN
             NaN             NaN             NaN
             NaN             NaN             NaN
             NaN             NaN             NaN
             NaN             NaN             NaN
             NaN             NaN             NaN
             NaN             NaN             NaN
             NaN             NaN             NaN
             NaN             NaN             NaN
             NaN             NaN             NaN
             NaN             NaN             NaN
             NaN             NaN             NaN
             NaN             NaN             NaN
             NaN             NaN             NaN
             NaN             NaN             NaN
             NaN             NaN             NaN
             NaN             NaN             NaN
             NaN             NaN             NaN
             NaN             NaN             NaN
             NaN             NaN             NaN
             NaN             NaN             NaN
             NaN             NaN             NaN
             NaN             NaN             NaN
             NaN             NaN             NaN
             NaN             NaN             NaN
             NaN             NaN             NaN
             NaN             NaN             NaN
             NaN             NaN             NaN
             NaN             NaN             NaN
             NaN             NaN             NaN
             NaN             NaN             NaN
             NaN             NaN             NaN
             NaN             NaN             NaN
             NaN             NaN             NaN
             NaN             NaN             NaN
             NaN             NaN             NaN
