H    Li   C    N    O    Co   Zn        
   1.00000000000000     
     7.5527276262258489   -1.1470792553900915    0.4514163110447444
    -0.4988677865895872    7.1951080409471597    0.0873426518423040
     0.0550370630234217    0.0638798376232810    6.7980784839138657
   H    Li   C    N    O    Co   Zn
    14     1    10     6     2     1     1
Selective dynamics
Direct
  0.5657393790056623 -0.0036592259004324  0.7096760526990398   T   T   T
  0.2385947089170153 -0.0199453056797843  0.2635616118409627   T   T   T
  0.3481618986876043  0.2243544273259479  0.2749036286409515   T   T   T
  0.1875959414970110  0.1160526990835609  0.4676442231537448   T   T   T
  0.6450252292912598  0.1346442150536937  0.2459082848400399   T   T   T
  0.5372454694600329  0.8884227456299606  0.2429839592946885   T   T   T
  0.6917650443648904  0.9770247746045763  0.4272080028841516   T   T   T
  0.2609791460762825  0.6081513586705416  0.5951050102559520   T   T   T
  0.5691215232178115  0.3549985052146524  0.9254302224196700   T   T   T
  0.7082602195573703  0.5823814877463784  0.8578902436566895   T   T   T
  0.6519254725689420  0.4108719898902478  0.6740542608715024   T   T   T
  0.4136955802290957  0.7363383371221088  0.9899998710480210   T   T   T
  0.3464930228945934  0.4931729453997354  0.0737181422842819   T   T   T
  0.2078834433620075  0.5932635938787303  0.9191026069157595   T   T   T
  0.7153972828655005  0.6357736087726129  0.3555803784965716   T   T   T
  0.9134076429317478  0.7658384227022528  0.0585143517602973   T   T   T
  0.9035620059552745  0.1610725903508906  0.6631374478786846   T   T   T
  0.0035281508634874  0.7813745272747775  0.6396511810104394   T   T   T
  0.0308050450227275  0.1887484884173588  0.0542059558737577   T   T   T
  0.4402255047748002  0.0302538236795175  0.6634589630992036   T   T   T
  0.2940484727202856  0.0927916672006582  0.3630922360534998   T   T   T
  0.5856250951737072  0.0069516609930924  0.3384609440784861   T   T   T
  0.3906181861450325  0.5658715108192649  0.5958217802566793   T   T   T
  0.6022623875419584  0.4678328173256476  0.8091443465584595   T   T   T
  0.3464958872121666  0.5926191734497952  0.9491475131745384   T   T   T
 -0.0562681601082561  0.6456926192801257  0.1645932216806216   T   T   T
  0.9337237829445180  0.2873085115398965  0.5441413200587392   T   T   T
  0.9739729755844494  0.6541940898759080  0.5312009785338837   T   T   T
 -0.0077622085211418  0.2967543496840935  0.1675274227547648   T   T   T
  0.4360834159097444  0.0391819572762558  0.4659838771006885   T   T   T
  0.4411248495344393  0.5358490840228276  0.7757327857569720   T   T   T
  0.3229379892948578  0.0584737552151280  0.7895694635353878   T   T   T
  0.4784477183403484  0.5487230498552199  0.4359464611518212   T   T   T
 -0.0371462408126044  0.4704910489028267  0.3509182972574959   T   T   T
  0.0009101374973923 -0.0148549046780786  0.8473523531235448   T   T   T
 
  0.00000000E+00  0.00000000E+00  0.00000000E+00
  0.00000000E+00  0.00000000E+00  0.00000000E+00
  0.00000000E+00  0.00000000E+00  0.00000000E+00
  0.00000000E+00  0.00000000E+00  0.00000000E+00
  0.00000000E+00  0.00000000E+00  0.00000000E+00
  0.00000000E+00  0.00000000E+00  0.00000000E+00
  0.00000000E+00  0.00000000E+00  0.00000000E+00
  0.00000000E+00  0.00000000E+00  0.00000000E+00
  0.00000000E+00  0.00000000E+00  0.00000000E+00
  0.00000000E+00  0.00000000E+00  0.00000000E+00
  0.00000000E+00  0.00000000E+00  0.00000000E+00
  0.00000000E+00  0.00000000E+00  0.00000000E+00
  0.00000000E+00  0.00000000E+00  0.00000000E+00
  0.00000000E+00  0.00000000E+00  0.00000000E+00
  0.00000000E+00  0.00000000E+00  0.00000000E+00
  0.00000000E+00  0.00000000E+00  0.00000000E+00
  0.00000000E+00  0.00000000E+00  0.00000000E+00
  0.00000000E+00  0.00000000E+00  0.00000000E+00
  0.00000000E+00  0.00000000E+00  0.00000000E+00
  0.00000000E+00  0.00000000E+00  0.00000000E+00
  0.00000000E+00  0.00000000E+00  0.00000000E+00
  0.00000000E+00  0.00000000E+00  0.00000000E+00
  0.00000000E+00  0.00000000E+00  0.00000000E+00
  0.00000000E+00  0.00000000E+00  0.00000000E+00
  0.00000000E+00  0.00000000E+00  0.00000000E+00
  0.00000000E+00  0.00000000E+00  0.00000000E+00
  0.00000000E+00  0.00000000E+00  0.00000000E+00
  0.00000000E+00  0.00000000E+00  0.00000000E+00
  0.00000000E+00  0.00000000E+00  0.00000000E+00
  0.00000000E+00  0.00000000E+00  0.00000000E+00
  0.00000000E+00  0.00000000E+00  0.00000000E+00
  0.00000000E+00  0.00000000E+00  0.00000000E+00
  0.00000000E+00  0.00000000E+00  0.00000000E+00
  0.00000000E+00  0.00000000E+00  0.00000000E+00
  0.00000000E+00  0.00000000E+00  0.00000000E+00
