N    C    H    V    Mg   O    Li
   1.00000000000000     
  16.9410788907403997  -0.2515222952948350   1.1022143863035201
  -0.1297813942996320   7.7702774663382499  -0.0384055583480146
  -1.6423933811143701  -0.0105698474830234   7.4896124005710298
N    C    H    V    Mg   O    Li
12  20  40  2  2  4  1  
Direct
  0.4860898972435918  0.1649741802127830  0.7962617010729676  
  0.5021201901674622  0.7932267373728425  0.1858788740006712  
  0.5099627066804441  0.1717237124579389  0.1827512300563199  
  0.4834171019890441  0.7859397938244541  0.8009591405442532  
  0.0029138946041251  0.7209627475321744  0.7906763966940170  
  0.0054853892795911  0.3377359295099000  0.1659374445195154  
  0.0180845786250250  0.7216997746669126  0.1688083084833721  
  0.9888290764447364  0.3395456738515467  0.7827245731233816  
  0.2622044450383336  0.0327512271854264  0.1229959019951987  
  0.7359696735994603  0.9886989856482308  0.8965318280346001  
  0.7565688948257824  0.5298650937291908  0.0456501984104905  
  0.2526881262091739  0.4893473173784888  0.9528117993729353  
  0.4859913079567089  0.2719164329853008  0.6878241988907414  
  0.5014061468991603  0.6845867019660239  0.2921414115950393  
  0.5128474857685029  0.2795759883853189  0.2917137514920896  
  0.4871397947834537  0.6776802868000790  0.6952907322993788  
  0.0063356891106830  0.8296761318867800  0.6849892600012872  
  0.0072279193269972  0.2306796248495104  0.2743745455342971  
  0.0178401500552478  0.8285366411058256  0.2780220512838823  
  0.9852250260412112  0.2314529157773656  0.6739171264297987  
  0.3403160171307084  0.0162518407945350  0.1280691167690818  
  0.6602246960322034  0.0374943770971038  0.8908125732230694  
  0.8318349769688804  0.4780534427796725  0.0595672996073330  
  0.1731918748627409  0.4610119449607586  0.9110373594539092  
  0.2332493738103814  0.0799387560920634  0.2849738819842983  
  0.7888261782441374  0.0630602471432592  0.7821140872347790  
  0.6993706475069115  0.4552141097678254  0.1505308410630404  
  0.3048789209773021  0.4031763876858093  0.8456494802540443  
  0.2024150305085612  0.9937510147956420  0.9736967446016980  
  0.7635065768759112  0.8467043488409681  0.0114637561165501  
  0.7318926324904861  0.6723824624623508  0.9281825830126320  
  0.2879524561043767  0.5943881884343422  0.0853646173016776  
  0.1942793226814928  0.9753722609498779  0.3235849185980607  
  0.8418759020867221  0.1256154614097489  0.8593130878941029  
  0.8090571241430651  0.9628226727141952  0.6991597822347778  
  0.1982492057406702  0.1968553071323437  0.2634956119311104  
  0.6477503495555079  0.3958607865520307  0.0655019255038479  
  0.3395903442094011  0.5012921811752726  0.7846820264004781  
  0.3457617634042175  0.3206750966352563  0.9290534980556954  
  0.6771957895400448  0.5549872080471648  0.2308933539391398  
  0.1380327084232855  0.4925483996225840  0.4220775217574848  
  0.8651870691955170  0.9607504608856480  0.3733975147142428  
  0.8523513817312042  0.5922199212950781  0.5435631538205374  
  0.1382083895618836  0.1252941025698410  0.5462825936746595  
  0.6386427106972018  0.4217330826391344  0.5357325381949386  
  0.3006842760462570  0.8028836549975314  0.6411280592529317  
  0.3581897582193349  0.4192908758413286  0.4623213377927048  
  0.6514837287477984  0.8782035827497665  0.4106739545425901  
  0.1403393826082806  0.0586062082184499  0.6183612043719826  
  0.8122139394248568  0.6035486288620112  0.4889894858053566  
  0.8623132520431392  0.0465336261657382  0.4179934955953590  
  0.1736015500147501  0.5093744977965724  0.4917347221890603  
  0.6937101173780896  0.8780735747145281  0.4577518983125968  
  0.3504978822251345  0.4612163313300524  0.3717687309295479  
  0.2661962730918012  0.7666671105750843  0.5771952481014470  
  0.6450636735044752  0.5008332000928905  0.5940301901755878  
  0.2317083135004117  0.9793381887791898  0.8566416643026088  
  0.7414916587967171  0.8630236066852374  0.1379140640994510  
  0.8289126949883655  0.8510816918065235  0.0331979438849449  
  0.1607265765720601  0.1008096161447466  0.9569833613259164  
  0.7553366842382947  0.6536113397735446  0.8037274669144723  
  0.3506898542086428  0.6277615348547944  0.0892689031579939  
  0.2501963538688469  0.6607913461256477  0.1636646777607126  
  0.6665095277946900  0.6704229170375943  0.9026038409365792  
  0.2833385468681311  0.1034584593267091  0.3913281314953292  
  0.7568017065703881  0.1588930206392617  0.6964571757384832  
  0.7282649280992652  0.3565727430421837  0.2376633223657831  
  0.2685259719616420  0.3239413641576931  0.7439789849551589  
  0.3766732320176968  0.0347803057786847  0.2581114412365293  
  0.6401823770827912  0.1373969007702276  0.7938162644963690  
  0.8482847627604901  0.3750420658781520  0.1554497957545623  
  0.1524652296861919  0.3682458356914602  0.8060170508143786  
  0.4924607001618583  0.9791705416145881  0.9912670959775643  
  0.0035418173023452  0.5263482082628039  0.9767199791537567  
  0.4927936385707635  0.4788267524422802  0.4893105216776442  
  0.0069651642280870  0.0315752832003511  0.4801660860231929  
  0.3723963289455470  0.9802263257589066  0.9919357010715950  
  0.6153358757438732  0.9720057554713982  0.9898153450728162  
  0.8808287638113910  0.5434926540025570  0.9691460536177684  
  0.1241355102951550  0.5402455557562851  0.9952307213452730  
  0.1159710638620416  0.7931466115842026  0.9955357087582360  
