N    C    H    Pb   Pd   O    Li
   1.00000000000000     
  15.3928286814344997   0.2353399437496490  -1.4806144579548199
   0.1130829055638850   7.4646112883795102   0.0369232831580525
  -2.5343025586747499   0.0072435046401113   7.2462484329686196
N    C    H    Pb   Pd   O    Li
12  20  40  2  2  4  1  
Direct
  0.4645583052613467  0.2212239875352548  0.7690136576390448  
  0.5442594547008708  0.7796831796193044  0.2365283786214383  
  0.5387492795800755  0.2127125722909978  0.2349855762147991  
  0.4655688984874342  0.7886020615589555  0.7664299692132353  
  0.9666865494352817  0.7663328764969605  0.8346455273162284  
  0.0602713570446149  0.2067079146173008  0.2556677547803608  
  0.0523461694397925  0.6964396003221808  0.2687311487066871  
  0.9400629873510712  0.2986359967355905  0.6996366841969283  
  0.2711105777633150  0.0055915838107905  0.1868961746718643  
  0.7304110314111605  0.0009382075845966  0.8064953430868443  
  0.7612182920223696  0.5046486920766964  0.2113344959566419  
  0.2392069839889251  0.5029941412566162  0.7934247390051686  
  0.4796383115045644  0.3203871217337470  0.6661196814278192  
  0.5225224117162373  0.6821041741353454  0.3317070685587884  
  0.5204178065426844  0.3149210062850551  0.3327261831940203  
  0.4821128575767132  0.6868694793536415  0.6658507715414800  
  0.9718431786958592  0.8221512360082845  0.6956889737452288  
  0.0238320536380944  0.1297354531690906  0.3399992876232711  
  0.0200192296022135  0.7745864634716075  0.3626544395788595  
  0.9640671724945018  0.1774329459625057  0.6309330033835138  
  0.3535939772275157  0.9928942488680672  0.1640365256595669  
  0.6502964319964598  0.9977915846421760  0.8328221910229217  
  0.8422504754803639  0.5000284686064982  0.1893475902243771  
  0.1584955195383252  0.5077162055520972  0.8169968420877148  
  0.2739799667833799  0.0132444553277834  0.3812329053372387  
  0.7291359398477245  0.0007663051785371  0.6145172802169840  
  0.7617123372907906  0.5083692947949339  0.4016462622303930  
  0.2386236484301455  0.4950499523041197  0.6033546918900994  
  0.1838375319700578  0.0094039417853927  0.0302179145395951  
  0.8208831155809537  0.0013473679294087  0.9624365016170976  
  0.6723060998056645  0.5014984818396194  0.0517513842645838  
  0.3285397280915972  0.5032462283296619  0.9521225502841392  
  0.2423304264739223  0.8925825781934493  0.4085676288718543  
  0.7649578988109700  0.1189758977921001  0.5955616924224840  
  0.7667080274633689  0.8794408638255478  0.5982622455592925  
  0.2336177024866889  0.1322142661659517  0.3926715966291158  
  0.7281704094997284  0.3886076353540932  0.4245897662335557  
  0.2730692160581166  0.6126951900645249  0.5790171468515274  
  0.2775527957155061  0.3739001065367975  0.5922356752563355  
  0.7221859728099972  0.6278212595740946  0.4145075094280241  
  0.1688670401002872  0.8276898178295894  0.6339112408680735  
  0.8224080710612196  0.1738609426201259  0.3424822714912545  
  0.8281465975691749  0.8292514436650030  0.3550831545924251  
  0.1694307988174137  0.1747027093207955  0.6416664205194330  
  0.6698182833366013  0.3388193806798759  0.6602567559435127  
  0.3294920301428732  0.6664730165227847  0.3468719236018603  
  0.3321467618392084  0.3379556104133907  0.3464359298281056  
  0.6696682246999371  0.6696807092515978  0.6591332070830096  
  0.2091161294120607  0.1534418292725573  0.7380798451126809  
  0.7839152659138058  0.8532109346061953  0.2663443485343865  
  0.7817548399188743  0.1440301247226373  0.2532025065339044  
  0.2173970726689425  0.8580977249329198  0.7002046434806312  
  0.7146880410943293  0.6483071201324824  0.7468844891220929  
  0.2881975617301378  0.3568992870108492  0.2560035463091126  
  0.2863641221758781  0.6500774136580869  0.2553214429657655  
  0.7150326048546044  0.3551107166956534  0.7473738190194587  
  0.1283695562981073  0.1016404394062321  0.0392695162753053  
  0.8547850065452816  0.8729108778052156  0.0264374247034842  
  0.8556646893085302  0.1293009358127369  0.0042364487277063  
  0.1801414825241534  0.9517256239431300  0.8959167795635977  
  0.6348454745410486  0.6276616795967940  0.9952358959520444  
  0.3625931563699488  0.3755371969664590  0.0136953709502520  
  0.3631106870512655  0.6296184203346177  0.9969142089148044  
  0.6402464657363451  0.3731631751440223  0.0046551766761679  
  0.3476906352725567  0.0192500676129307  0.4884452480816476  
  0.6554431485216314  0.0031042127319844  0.5058079257140278  
  0.8353706150737242  0.5099229904394471  0.5099413403858830  
  0.1649701840598544  0.4932224133400631  0.4946892129001534  
  0.4189705110632886  0.9856316599330603  0.2988766303260242  
  0.5848730816967860  0.9986474665917257  0.7006690046344033  
  0.9068783994490212  0.4988975086435740  0.3244666991151254  
  0.0933300106780442  0.5051343531828074  0.6830740462985262  
  0.5022566035016033  0.9996398291518880  0.0016671755383029  
  0.0049776084733052  0.4586225623353604  0.0093092143217125  
  0.5002982159613386  0.5008720949547595  0.4979620971312272  
  0.9890402322725806  0.9694666335308412  0.5013017499499297  
  0.3543563924021293  0.9938873845486902  0.9956908580386670  
  0.6500733183195463  0.9959363104241068  0.0015783764187365  
  0.8462137122561229  0.4970740186088964  0.0281296384992302  
  0.1558032211941863  0.5142750412047373  0.9795471886472176  
  0.0531240688670813  0.8804251712696518  0.0793824657298892  
