N    C    H    Co   Zn   O    Li        
   1.00000000000000     
    19.4496790439517007    0.3934847686679080    1.3661451277672201
     1.4347340722365991    6.9039463018047647    0.6254910632487320
    -2.3306045932916994   -0.0919572199833850    5.3539110666051268
   N    C    H    Co   Zn   O    Li
    12    20    40     2     2     4     1
Direct
  0.4919941575241069  0.1732436250292638  0.7628286201296008
  0.5153394600567315  0.9524466797988363  0.3093668446615776
  0.4729367837018705  0.2901173272647865  0.1432019153052599
  0.5383082529750323  0.8288454043797377  0.9448506841698567
  1.0083484493183121  0.8195248502404147  1.3379129534134486
  0.9922867602472538  0.5176363439856124  0.7159054207097127
 -0.0632020086580440  0.8828960388971977  0.6196051311776001
  0.9769998971558195  0.4800681033169764  1.3224091200478099
  0.2940320858099943 -0.0236773379501567 -0.2253822959509850
  0.7116645069163430  0.9917623827905924  1.0743037534845037
  0.7365921124223067  0.5173018913254290 -0.0751228357133023
  0.2232103357144573  0.4384165056802302  0.7427799090979271
  0.4789668043894009  0.3231818552082240  0.6637341066395251
  0.5200246399196298  0.8110008207479610  0.4147524486271384
  0.4928957979567399  0.3962447321020559  0.2879344808887339
  0.5440749111638831  0.6818104808823978  0.8578198687049839
  1.0502301115774391  0.8767043548221954  1.2719267630299478
  1.0234248807371562  0.3561315496890457  0.7676028205297272
 -0.0852489038765714  0.9933825751447994  0.7412399318328062
  0.9716271432455671  0.3247918860968436  1.2676920833782106
  0.3650217685754052 -0.0445238399435394 -0.1822041536105782
  0.6412408208240117  1.0362112554547025  1.0532985094487122
  0.7498387589636388  0.4465734202347353 -0.2726503290689640
  0.1682267972299591  0.5442184785415793  0.5657566821750448
  0.2824467427696570 -0.1134643437082187 -0.0439820892311903
  0.7075508937845304  1.0079564649897179  0.8296292780189862
  0.7701690473368639  0.3959882767216037  0.1386147597906751
  0.2962651351263987  0.4144550103008183  0.7461662378465149
  0.2345264329815748  0.1275365213857766 -0.3407796855213880
  0.7708159775642306 -0.0917423153859212  1.2687152203440297
  0.6817252937388717  0.6691720124895677 -0.0988313022138697
  0.2073259599709138  0.2746858933074912  0.8208094199538386
  0.2532016709815468  0.7791087618227802 -0.0868384842817417
  0.7573096538786611  0.0282953358441450  0.8253761771032900
  0.6938131455985000  0.8918647837657651  0.7235342471080408
  0.2541018960417391 -0.0023953054464056  0.0301479809116364
  0.7276455259036846  0.4144377168825392  0.2117303056055123
  0.3372494107563510  0.3733799436647670  0.9222844217901127
  0.3039352682545731  0.3143368293270413  0.6165227802444804
  0.8197252879965724  0.4147721200785472  0.2812683411643196
  0.3156595983806185  0.9331099270221122  0.4003533534561867
  0.8738388618890898  0.3158490338417725  0.8521932655074269
  0.8678273144747412  0.7079552411964977  0.8472145972097409
  0.1350921740835831  0.1757326982068624  0.0528645860623078
  0.6364114452717234  0.2054148477162339  0.3346516428639118
  0.4149601909883874  0.6627693652757544  0.0735858763980153
  0.3506571457082071  0.4652670077204459  0.3974412771212482
  0.6245241600502565  0.4736860774795463  0.3905695364609924
  0.1520079492279275  0.2418438630938616  0.1381752174844058
  0.8533076039027928  0.6230652050534409  0.8100772689430771
  0.9051680888622744  0.2535439991260945  0.8258000620604461
  0.3468603356421557  0.9800701762129517  0.4286028329460703
  0.6434623068852265  0.4405376067973986  0.5177546912784904
  0.3629849356248289  0.5338110070657622  0.4867100935497291
  0.4111557018912795  0.6124835696521650  0.1720071692073596
  0.6748602119065042  0.2105951850988856  0.3630405055825829
  0.1863258189626782  0.0791002044946590 -0.4337746012981392
  0.7698635785819863 -0.0904568532560548  0.4478939617258546
  0.8175805805728071 -0.1887058483828188  1.2486060773294847
  0.2509186116928870  0.1917489603906127  0.5335882543869269
  0.6747929106105732  0.7491139603501515  0.0458299746971673
  0.2295629758904235  0.2475889217759235  1.0163581932334311
  0.1486579343185111  0.2762219652583616 -0.2273829150011981
  0.6526119326333946  0.7325768433421557  0.7244422111717823
  0.3351858252590448 -0.1747182387779274  0.0804674782665388
  0.6623279345597101  1.1259292121049946  0.7420802312872536
  0.7832056008550349  0.2556572041243576  0.0807343236039427
  0.3038432707552791  0.5411753070578141  0.6848824256732424
  0.3991105643630338  0.8566676634922781 -0.0351609156983205
  0.6042340605731084  1.1001637638939135  0.8812456904886142
  0.7647702977468337  0.2941962805586840 -0.2653179192398253
  0.1859543891119285  0.6227784807330925  0.4525045396041776
  0.5059164610520394  0.0579875911812378  1.0380060653603136
  0.9748006938837865  0.6904047159959018  0.4893366813808275
  0.5211909058942318  0.5720014331805846  0.5367264989367097
  0.9692354971474820  0.0708936224941536  1.0695769488735327
  0.3936680303217301  0.0274722829239252  0.7039962533237966
  0.6183452653399584 -0.0024829271961312  1.2088583580995513
  0.7383373455806584  0.5436727007199386  0.5461725847575242
  0.1048717102550288  0.5485229166385603 -0.4517906456718553
  0.0264354771360872  0.3809329540859195  0.0801216153021428
 
             NaN             NaN             NaN
             NaN             NaN             NaN
             NaN             NaN             NaN
             NaN             NaN             NaN
             NaN             NaN             NaN
             NaN             NaN             NaN
             NaN             NaN             NaN
             NaN             NaN             NaN
             NaN             NaN             NaN
             NaN             NaN             NaN
             NaN             NaN             NaN
             NaN             NaN             NaN
             NaN             NaN             NaN
             NaN             NaN             NaN
             NaN             NaN             NaN
             NaN             NaN             NaN
             NaN             NaN             NaN
             NaN             NaN             NaN
             NaN             NaN             NaN
             NaN             NaN             NaN
             NaN             NaN             NaN
             NaN             NaN             NaN
             NaN             NaN             NaN
             NaN             NaN             NaN
             NaN             NaN             NaN
             NaN             NaN             NaN
             NaN             NaN             NaN
             NaN             NaN             NaN
             NaN             NaN             NaN
             NaN             NaN             NaN
             NaN             NaN             NaN
             NaN             NaN             NaN
             NaN             NaN             NaN
             NaN             NaN             NaN
             NaN             NaN             NaN
             NaN             NaN             NaN
             NaN             NaN             NaN
             NaN             NaN             NaN
             NaN             NaN             NaN
             NaN             NaN             NaN
             NaN             NaN             NaN
             NaN             NaN             NaN
             NaN             NaN             NaN
             NaN             NaN             NaN
             NaN             NaN             NaN
             NaN             NaN             NaN
             NaN             NaN             NaN
             NaN             NaN             NaN
             NaN             NaN             NaN
             NaN             NaN             NaN
             NaN             NaN             NaN
             NaN             NaN             NaN
             NaN             NaN             NaN
             NaN             NaN             NaN
             NaN             NaN             NaN
             NaN             NaN             NaN
             NaN             NaN             NaN
             NaN             NaN             NaN
             NaN             NaN             NaN
             NaN             NaN             NaN
             NaN             NaN             NaN
             NaN             NaN             NaN
             NaN             NaN             NaN
             NaN             NaN             NaN
             NaN             NaN             NaN
             NaN             NaN             NaN
             NaN             NaN             NaN
             NaN             NaN             NaN
             NaN             NaN             NaN
             NaN             NaN             NaN
             NaN             NaN             NaN
             NaN             NaN             NaN
             NaN             NaN             NaN
             NaN             NaN             NaN
             NaN             NaN             NaN
             NaN             NaN             NaN
             NaN             NaN             NaN
             NaN             NaN             NaN
             NaN             NaN             NaN
             NaN             NaN             NaN
             NaN             NaN             NaN
