N    C    H    Co   Zn   O    Li        
   1.00000000000000     
    21.5874092673804832    0.5184487570424690    0.8012604464689070
     1.2433359723835569    7.7512124635731681    0.1090974308941410
    -2.2278514080719325    1.1221674541566404    7.3526714849926167
   N    C    H    Co   Zn   O    Li
    12    20    40     2     2     4     1
Direct
  0.5025108219532065  0.1942046467823778  0.7480454380659385
  0.5119244691333580  0.8293195394862346  0.2270387332113775
  0.4988386214580498  0.1975200523622052  0.1384298802212111
  0.4917450933297757  0.8591021116395641  0.8444067788795889
  0.9936336400157466  0.7666919981438082  1.0770482255552198
  0.9895780758906980  0.4103361518930317  0.4960849519976841
  0.0129714430977435  0.7174644538837105  0.4237995837985059
  0.9706672439754268  0.4079052343897485  1.1246049113277510
  0.2723980250949011  0.0099375506756859 -0.0010291271865101
  0.7286017949700203  0.9546775530316859  0.9576426060747842
  0.7319303367606177  0.5794308503036978  0.0207136270447259
  0.2979640656130970  0.4308197369459833  0.8701844266482690
  0.4982424892168788  0.3060387717704831  0.6246483815017632
  0.5101943473490387  0.6998321279173840  0.3217411489652118
  0.5018853218149945  0.3058953187979070  0.2338745443589499
  0.4692684569158172  0.7785532231101318  0.7335053503430483
  0.0029441053171419  0.8930642654263289  0.9914017659300001
  0.9982165770017882  0.2935943650721313  0.6218819734618936
  0.0390362545339132  0.8282710585183889  0.4785674840089829
  0.9673485811996291  0.3047946379987418  1.0205163697003055
  0.3337463797354855 -0.0023321364439251 -0.0263368939645742
  0.6435772004482080  0.8890966280399332  0.9636943782039725
  0.7692992669969083  0.4695133591373635 -0.0729426104588101
  0.1841711062993743  0.4766912002068250  0.7644044701138900
  0.2708956277645254 -0.0116377373899432  0.1867467224787986
  0.7378926699256732  0.9670092573402191  0.7731689206649539
  0.7563022211351569  0.5409395025465878  0.2225236316413221
  0.3061849817809222  0.4272770636301085  0.6937646046787745
  0.2146457245938871  0.0647052699274370 -0.1304439100612339
  0.7683796167398026 -0.0153636181445856  1.0982069076677217
  0.6828290490555620  0.7173857556068084 -0.0850244413752757
  0.2418059480780632  0.4342872897885632  0.9039399278234488
  0.2398208953484709  0.8955752551488495  0.1973880503295069
  0.7708816089343351  0.0534740765192989  0.7542078094259893
  0.7570415499748855  0.8370279676819904  0.7384672219748780
  0.2487734866049159  0.1189252424858347  0.2121211780159097
  0.7210508305171200  0.4938360582461513  0.2842437225718102
  0.3477232050568448  0.4839883413430953  0.7008257269828883
  0.3138614657467198  0.2912434116010800  0.6584004775925179
  0.7658926177062854  0.6584942478654002  0.2830929073545485
  0.2304986016585832  0.8232560321521265  0.4747120591854250
  0.8590767456497295  0.2425562709102826  0.6134132817622039
  0.8772650117044493  0.7283984138702239  0.7400187154774435
  0.1210290427108989  1.0970027303989920  0.2614304333071273
  0.6700700458773737  0.2756507043198990  0.4797718376503661
  0.4078918744156007  0.6980336930395746  0.2922759472383682
  0.3550043504612983  0.3714691878017223  0.4191938462334963
  0.6446755201644438  0.5786840916010292  0.5182165748844161
  0.1431701587957711  0.1396830265266695  0.3265109550663747
  0.8760071189886387  0.7185344465163195  0.6425118310524767
  0.8291528407672230  0.2062848722592823  0.5943382166704451
  0.2582076505092732  0.8553148794271788  0.5319719996927069
  0.6103556304177487  0.6182210109581139  0.5140179708607528
  0.3577876712748691  0.4664101752826406  0.4247856867828416
  0.3757429907316466  0.6780271884024289  0.2494928819886328
  0.6474430861347520  0.2573132120770460  0.5335774264827715
  0.1689306629250336  0.0424974082916487  0.8927820738273852
  0.7613456050543442 -0.0193227744055103  0.2376009438503783
  0.8138574319021197  0.0186229233233691  1.0868006770183938
  0.2120848558732825  0.0940936125553969  0.7269812942430235
  0.6160699786151524  0.6202121593536291  0.9093904198740601
  0.3356643363481670  0.3762444487339001  0.9812554123104171
  0.2448904006825230  0.4460435907818152  0.0436013711444530
  0.6193609942865945  0.6313568165642516  0.8058435908521934
  0.3197004280124885  0.9395819224409152  0.2804559305297312
  0.6907154820192152  1.0161071490029518  0.6714626840605831
  0.8028827367552525  0.4435505594820708  0.2612674952080765
  0.2630018452648738  0.5140107638288934  0.5980095393389123
  0.3725060957274340  0.9739388676774956  0.1045518443638017
  0.6163123299596595  0.9765340853573464  0.8302756422395392
  0.8144272591359286  0.3844726898368987  0.0214947950335898
  0.1924282505846858  0.4607058019529963  0.6268099879216077
  0.5173889068554474 -0.0044636049931754  1.0251678614805135
  0.9860333089086999  0.5629384927914964  0.2840943946918995
  0.5078230681301423  0.4646822051922388  0.4251569852528807
  0.9846043117021295  0.1368694180768884  0.8462350834730954
  0.3439284138701770  0.0107490240885152  0.8232569045455199
  0.6224893267495066 -0.0740718847903189  1.0994041533084407
  0.7566349693932504  0.4634074479585326  0.7641454964118368
  0.1296272386781861  0.5372828594013287  0.7910073808051956
  0.0891226424508172  0.5391096772649604  1.0164995621200446
 
             NaN             NaN             NaN
             NaN             NaN             NaN
             NaN             NaN             NaN
             NaN             NaN             NaN
             NaN             NaN             NaN
             NaN             NaN             NaN
             NaN             NaN             NaN
             NaN             NaN             NaN
             NaN             NaN             NaN
             NaN             NaN             NaN
             NaN             NaN             NaN
             NaN             NaN             NaN
             NaN             NaN             NaN
             NaN             NaN             NaN
             NaN             NaN             NaN
             NaN             NaN             NaN
             NaN             NaN             NaN
             NaN             NaN             NaN
             NaN             NaN             NaN
             NaN             NaN             NaN
             NaN             NaN             NaN
             NaN             NaN             NaN
             NaN             NaN             NaN
             NaN             NaN             NaN
             NaN             NaN             NaN
             NaN             NaN             NaN
             NaN             NaN             NaN
             NaN             NaN             NaN
             NaN             NaN             NaN
             NaN             NaN             NaN
             NaN             NaN             NaN
             NaN             NaN             NaN
             NaN             NaN             NaN
             NaN             NaN             NaN
             NaN             NaN             NaN
             NaN             NaN             NaN
             NaN             NaN             NaN
             NaN             NaN             NaN
             NaN             NaN             NaN
             NaN             NaN             NaN
             NaN             NaN             NaN
             NaN             NaN             NaN
             NaN             NaN             NaN
             NaN             NaN             NaN
             NaN             NaN             NaN
             NaN             NaN             NaN
             NaN             NaN             NaN
             NaN             NaN             NaN
             NaN             NaN             NaN
             NaN             NaN             NaN
             NaN             NaN             NaN
             NaN             NaN             NaN
             NaN             NaN             NaN
             NaN             NaN             NaN
             NaN             NaN             NaN
             NaN             NaN             NaN
             NaN             NaN             NaN
             NaN             NaN             NaN
             NaN             NaN             NaN
             NaN             NaN             NaN
             NaN             NaN             NaN
             NaN             NaN             NaN
             NaN             NaN             NaN
             NaN             NaN             NaN
             NaN             NaN             NaN
             NaN             NaN             NaN
             NaN             NaN             NaN
             NaN             NaN             NaN
             NaN             NaN             NaN
             NaN             NaN             NaN
             NaN             NaN             NaN
             NaN             NaN             NaN
             NaN             NaN             NaN
             NaN             NaN             NaN
             NaN             NaN             NaN
             NaN             NaN             NaN
             NaN             NaN             NaN
             NaN             NaN             NaN
             NaN             NaN             NaN
             NaN             NaN             NaN
             NaN             NaN             NaN
