N    C    H    Ni   Pd   O    Li        
   1.00000000000000     
    19.3745276925488810   -0.0435908348402102    1.3339165366291499
    -0.1296387459656166    7.3868089705385414    0.2139461519686220
    -1.8149086334018067    0.4268513450145899    7.3015732821201142
   N    C    H    Ni   Pd   O    Li
    12    20    40     2     2     4     1
Direct
  0.4910977881144310  0.2081191246526412  0.7948072575527372
  0.5090365528975952  0.8101384715330955  0.1663643813796291
  0.5181531053516235  0.2031388162834876  0.1967317710108782
  0.4790463980420306  0.7971717879979037  0.7378860060035380
  0.9794515451727626  0.6416890790162300  0.8069608395442629
  0.9750377903321985  0.2680051566108749  0.1782446497279107
  0.0485538873194554  0.7207067132218479  0.2525322092434301
  0.9679105107613721  0.2548334398192785  0.7871231070330564
  0.3097478007887216  0.0666183479781254  0.1885933961664509
  0.7024636636805061  0.0000404142542159  0.8330611447487459
  0.7823552928119731  0.5648341890482118  0.1764111439522416
  0.2308972485203265  0.4285911008933267  0.8284298443791768
  0.4933935631198842  0.3140740779666759  0.6722063285520655
  0.5068477497894363  0.6904837983549784  0.2763530994637321
  0.5134541886968085  0.3100436542338751  0.3001182237225762
  0.4855422417916710  0.6882773401629053  0.6374815345580968
  0.9883085840352217  0.7659572128362289  0.7044071009926940
  0.9851628458394366  0.1643753660369497  0.3074710522526033
  0.0248658017608470  0.8058100594161717  0.3511339582656886
  0.9736134607170556  0.1481592359717136  0.6842482921622910
  0.3725726060095521  0.0186233657002715  0.1567385242484359
  0.6328815149772451  0.0016917525815953  0.8447664662627378
  0.8514259018043728  0.5420085622475783  0.1673751291053711
  0.1683871488056297  0.5006281723565253  0.8321810274203475
  0.2887116731057372  1.0086845136334706  0.3609213143557469
  0.7222153905543021  0.0239663714482459  0.6541892160273657
  0.7617661921443695  0.5468899355418682  0.3549969705538925
  0.2536622009662359  0.3880619395505408  0.6624454889918329
  0.2591400568834115  0.1571539899148001  1.0428223784383652
  0.7565310884927565 -0.0131570639973709 -0.0252637893742972
  0.7327251562902022  0.5963794122922851  1.0257455717868922
  0.2759769235924331  0.3630951641192293  0.9963551254151789
  0.2453695752230042  0.9122491510615154  0.3399726945096965
  0.7547392279196814  0.1455196310247651  0.6502992536596819
  0.7528177618073992  0.9070393129796909  0.6329560852421217
  0.2715674763875974  0.1235614842809027  0.4245255203657467
  0.7215205671318190  0.4421837475537848  0.3562786131139327
  0.2942304016293741  0.4828570646764920  0.6271512848801897
  0.2774457935788335  0.2525834986655903  0.6847585370780351
  0.7405781642803050  0.6746319360285757  0.3856278851835355
  0.2168348149326617  0.8544694235299817  0.7006137788721212
  0.8191045857794730  0.1797459148213262  0.3366378493044387
  0.8626207150340881  0.8631330557427107  0.4399583737609740
  0.1331205234808052  1.1317434953303966  0.4325515772549011
  0.6428847760595654  0.3849815316085319  0.7009432348061758
  0.2688735270516364  0.6118700077340057  0.3372948176945546
  0.3752319249450446  0.3505373034591248  0.4424842767282811
  0.6263957719383096  0.7182735937343139  0.5158035832851028
  0.1595177924715071  1.1024483842196520  0.5146834715554165
  0.8302164846714127  0.8591585035252826  0.3692838305556445
  0.7841737580558162  0.2007547283906173  0.2791130906531833
  0.2544542805072846  0.8430960524873856  0.7446872361814276
  0.6590063116177007  0.7025628332737954  0.5848525835275770
  0.3407905877090279  0.3565164205954986  0.3788949838072873
  0.2313161942696494  0.6198722845415994  0.2923166734267441
  0.6789367361350964  0.3715259512462545  0.7556050849757869
  0.2539940467818310  0.0765727159688848  0.9245469667367489
  0.7470235094885918 -0.0260818062359162  0.1125919623189839
  0.8080767857130464  0.0042430419203536 -0.0605129893881796
  0.2070299581381924  0.1354663079550295  1.0785707981684560
  0.6793887887992689  0.6230527321789321  1.0402107089658890
  0.3298928828885022  0.3870953228671378  0.9732852097046123
  0.2665687783442441  0.4543020598241769  0.0973848386700425
  0.7483090679493968  0.5932421963067251  0.8945499768535923
  0.3326405620936559  0.9428409996091449  0.4544548237025577
  0.6759594229141114  0.0397813530779711  0.5483271925932445
  0.8070934024963691  0.5077902227130091  0.4591861610987168
  0.2091290597254011  0.3919630954741862  0.5505546230871948
  0.4063647844496631  0.9488993997889442  0.2744681836522043
  0.5981265665551312  0.0177166369513108  0.7127912289065162
  0.8851779883755195  0.5058321870655896  0.2980158809892016
  0.1342832760426883  0.5186679193271031  0.6977751033934039
  0.5017648547332501  0.0240397018543702 -0.0025557437718806
  0.9539847874373981  0.4256598831046600  0.9534726400047108
  0.4999891329933517  0.4985889358050089  0.4702587220737541
  0.9929314605031689  0.9706085861997494  0.5147949795449472
  0.3915789321222012  0.0495334424256344  1.0066882336596468
  0.6111811628812975 -0.0108444975874873 -0.0079306464003064
  0.8728736076831349  0.5567280130717186  0.0188551455307043
  0.1493278678390101  0.5405732400919846  0.9744389642526536
  0.0657028685271081  0.6209500501370204  0.0337782983958511
 
             NaN             NaN             NaN
             NaN             NaN             NaN
             NaN             NaN             NaN
             NaN             NaN             NaN
             NaN             NaN             NaN
             NaN             NaN             NaN
             NaN             NaN             NaN
             NaN             NaN             NaN
             NaN             NaN             NaN
             NaN             NaN             NaN
             NaN             NaN             NaN
             NaN             NaN             NaN
             NaN             NaN             NaN
             NaN             NaN             NaN
             NaN             NaN             NaN
             NaN             NaN             NaN
             NaN             NaN             NaN
             NaN             NaN             NaN
             NaN             NaN             NaN
             NaN             NaN             NaN
             NaN             NaN             NaN
             NaN             NaN             NaN
             NaN             NaN             NaN
             NaN             NaN             NaN
             NaN             NaN             NaN
             NaN             NaN             NaN
             NaN             NaN             NaN
             NaN             NaN             NaN
             NaN             NaN             NaN
             NaN             NaN             NaN
             NaN             NaN             NaN
             NaN             NaN             NaN
             NaN             NaN             NaN
             NaN             NaN             NaN
             NaN             NaN             NaN
             NaN             NaN             NaN
             NaN             NaN             NaN
             NaN             NaN             NaN
             NaN             NaN             NaN
             NaN             NaN             NaN
             NaN             NaN             NaN
             NaN             NaN             NaN
             NaN             NaN             NaN
             NaN             NaN             NaN
             NaN             NaN             NaN
             NaN             NaN             NaN
             NaN             NaN             NaN
             NaN             NaN             NaN
             NaN             NaN             NaN
             NaN             NaN             NaN
             NaN             NaN             NaN
             NaN             NaN             NaN
             NaN             NaN             NaN
             NaN             NaN             NaN
             NaN             NaN             NaN
             NaN             NaN             NaN
             NaN             NaN             NaN
             NaN             NaN             NaN
             NaN             NaN             NaN
             NaN             NaN             NaN
             NaN             NaN             NaN
             NaN             NaN             NaN
             NaN             NaN             NaN
             NaN             NaN             NaN
             NaN             NaN             NaN
             NaN             NaN             NaN
             NaN             NaN             NaN
             NaN             NaN             NaN
             NaN             NaN             NaN
             NaN             NaN             NaN
             NaN             NaN             NaN
             NaN             NaN             NaN
             NaN             NaN             NaN
             NaN             NaN             NaN
             NaN             NaN             NaN
             NaN             NaN             NaN
             NaN             NaN             NaN
             NaN             NaN             NaN
             NaN             NaN             NaN
             NaN             NaN             NaN
             NaN             NaN             NaN
