N    C    H    Hg   Pt   O    Li
   1.00000000000000     
  16.6628863076914016  -0.1288622650135490  -0.2342593737850560
  -0.0598655429620873   7.9369167781064602   0.1808003391090470
  -2.1498685033894298   0.1773760800071200   7.2594320211945904
N    C    H    Hg   Pt   O    Li
12  20  40  2  2  4  1  
Direct
  0.4814342472760801  0.2041030693907639  0.7832603333040764  
  0.5387513910721171  0.7913873907568481  0.2441588945509961  
  0.5394478828616365  0.2248395444740980  0.2513705597940029  
  0.4746605019893748  0.7703133575979260  0.7762680679334324  
  0.9714413105099520  0.7020047913624013  0.7616085484466046  
  0.0023062849444088  0.2826840958699852  0.1840372773657227  
  0.0486769765833269  0.7263970720597542  0.2381901435720152  
  0.9512748603835656  0.2750084602800285  0.7133625634057924  
  0.2871144472142863  0.0015610676448134  0.2476846672396088  
  0.7268218661082030  0.9940710234584270  0.7766085267753192  
  0.7586166930274235  0.5122432066298714  0.1910574179032540  
  0.2331332720471218  0.5003269817243331  0.8107390540919963  
  0.4903995913360526  0.3153181857225593  0.6835517496177947  
  0.5253460087820461  0.6824424658775117  0.3417498699980448  
  0.5266354697163145  0.3277687680726113  0.3460048108043933  
  0.4868668813123821  0.6695511608107300  0.6788741135612335  
  0.9789665250038364  0.8093777223924633  0.6558578541755872  
  0.9977302454593719  0.1718878447827281  0.2885095894159312  
  0.0234082103066097  0.8207966313990469  0.3238959274911474  
  0.9636649038816276  0.1663920818030207  0.6251285142665831  
  0.3583461272522074  0.0127466967760996  0.2027513095272514  
  0.6532174407216611  0.9887930446921680  0.8224425638832706  
  0.8340785456486738  0.5140428314890818  0.1547137990734747  
  0.1553147848293675  0.4844847800170625  0.8330384060708420  
  0.2902856091571174  0.0186176346084098  0.4394471274891519  
  0.7227083479394786  0.0040084501064639  0.5809433113319740  
  0.7578574331261528  0.5077591612352210  0.3839324398078393  
  0.2440041834579003  0.4577433521841034  0.6327761641716003  
  0.2077497861091586  0.9558374568939060  0.1223502393551702  
  0.8037482078724063  0.9942025567913830  0.9050520447511224  
  0.6835596372557242  0.5111996442779257  0.0573005625710840  
  0.3006363011967514  0.5622230298465609  0.9401676644884702  
  0.2763810015017048  0.8971940486553230  0.4995074302409016  
  0.7531484500367566  0.1206429241262022  0.5513640083932103  
  0.7556518963706040  0.8964285090249129  0.5498783985674298  
  0.2422339755790374  0.1094201191311941  0.4462444645063438  
  0.7261953907771941  0.3924334638326296  0.4130331389919776  
  0.2680615560692289  0.5685606769064373  0.5733384781773644  
  0.2888803281763551  0.3538629292731831  0.6543286805204376  
  0.7234798573227067  0.6171399099063580  0.4060763704208649  
  0.1803919899960367  0.8235908709740164  0.6632135002683903  
  0.7897067831557618  0.1772605504467360  0.2765664686504346  
  0.8247569491931511  0.8463071648495329  0.3254634261957147  
  0.1470060143609417  0.1361879015747036  0.6600439653850919  
  0.6888659701798412  0.3333311106925903  0.6845760620913389  
  0.3377234253006779  0.6616228551260985  0.3664508806984336  
  0.3140529396743957  0.3623247409303724  0.3139041290014699  
  0.6781990118633152  0.6616068805234570  0.6547734887470390  
  0.1822247032570330  0.1406956606010069  0.7489056431645782  
  0.7799470207106298  0.8519719435997601  0.2648893429741200  
  0.7473440647190358  0.1554967396058266  0.2123845560446150  
  0.2190905867361164  0.8326865385295348  0.7439334752980015  
  0.7222054350816920  0.6542868637380573  0.7187854230859025  
  0.2689206333044492  0.3522675770908062  0.2583101462146106  
  0.2962501727939239  0.7012335173331325  0.3119157543509548  
  0.7326608156475085  0.3415746358082024  0.7486487267787457  
  0.1584153941789955  0.0336825010032741  0.1480714749178246  
  0.8586469294716758  0.0001992266127989  0.8564029847277421  
  0.8072004854176567  0.9879002318120660  0.0498832398345101  
  0.2097627170369439  0.9795198326704960  0.9799494887096830  
  0.6267764323028935  0.5092902787159110  0.0992365579536353  
  0.3587509466222406  0.5801409540006582  0.9049216128164186  
  0.2941468404399978  0.5918671265501465  0.0729103660945031  
  0.6833815927797183  0.5114448166753610  0.9144896653888630  
  0.3523562054995726  0.0621114758663890  0.5204860060657941  
  0.6571881698809042  0.0036177498211653  0.4942725480433837  
  0.8222332091080332  0.5096395727414974  0.4764151324397276  
  0.1834710942488716  0.4207843253690696  0.5380674388191856  
  0.4145393255123797  0.0385956748902847  0.3180411686596529  
  0.5968410367710364  0.9890686210255401  0.7013301259232717  
  0.8888719033071864  0.5132521116045065  0.2791333667530009  
  0.1078222416474510  0.4334931910525207  0.7141780967948117  
  0.4983054757947359  0.9947636216655970  0.0083193150276613  
  0.9763239413104789  0.4739339819045497  0.9493886800420770  
  0.5067240825898808  0.4991862447034850  0.5120728788617555  
  0.9897516270467390  0.9903961671305980  0.4728786969549945  
  0.3621618867148086  0.9934676978935510  0.0382371911718617  
  0.6500043404896936  0.9837879861698530  0.9855126374941210  
  0.8402199243581469  0.5169775018214976  0.9922521108812040  
  0.1376193530963256  0.5251593526027537  0.9773223430339329  
  0.1439219540555152  0.7212979869183938  0.1191867997480194  
