N    C    H    Fe   Ni   O    Li
   1.00000000000000     
  17.1930443903920995   0.1732326606658740   0.1899020016472040
  -0.5059238783122720   6.8564159040543702   0.0096011352679006
  -0.9272523753279730  -0.0826110939145802   7.0126683872322104
N    C    H    Fe   Ni   O    Li
12  20  40  2  2  4  1  
Direct
  0.5020804455428748  0.1573656012369265  0.8035199270028138  
  0.4950025507851900  0.7684374311672499  0.1875737386888911  
  0.4974473791438408  0.1596153688774568  0.1854030692492838  
  0.5000816469074495  0.7675925709986268  0.8044970788190515  
  0.9957384491792354  0.7608837052962890  0.7918667858892420  
  0.0109605899883720  0.3676813474822681  0.1746265728535068  
  0.9894045811171854  0.7513230378038300  0.1788328420356076  
  0.0157798121178133  0.3741085876242500  0.7946500291224391  
  0.2582994399969674  0.9568254330206928  0.0442281410620084  
  0.7403625054648625  0.9927920873590164  0.9778598641833446  
  0.7594331216985597  0.4912967342309402  0.9893385412904722  
  0.2424588309720325  0.5324629286157938  0.9990440828489588  
  0.5022909033973825  0.2747479609278931  0.6829274811814852  
  0.4944248111452568  0.6514797054606374  0.3083715041775002  
  0.4975133009171965  0.2763903187025942  0.3068468413088028  
  0.4996794993082814  0.6505509131849497  0.6833210391207489  
  0.9974113700805572  0.8788652248507839  0.6711084631800981  
  0.0094059929019552  0.2512275751129925  0.2960966071996384  
  0.9918966001064212  0.8714979851754852  0.2994059706900854  
  0.0130406995473743  0.2567303253527333  0.6726783601304857  
  0.3374127956347645  0.9856895977600484  0.0679875719478491  
  0.6613986720609428  0.9804549987345450  0.9251458442936036  
  0.8379111220326106  0.5014811456432976  0.0460509770040808  
  0.1770816506946699  0.6533963110715458  0.9188748929653544  
  0.2135286403214753  0.0283574756214335  0.1889670868073060  
  0.7933841361161551  0.9955283266675040  0.8303879722907950  
  0.7048460269828327  0.4883538696671299  0.1342081324793241  
  0.2995581241054266  0.4856753825145451  0.8718116893985830  
  0.2164665428665327  0.8583882471587807  0.8766295039673849  
  0.7733548783242158  0.0028011410984012  0.1633492119983007  
  0.7276281431326116  0.4821092073305451  0.8034581616089215  
  0.2576630472948027  0.5088040097643926  0.1858496969048321  
  0.1824652972344521  0.9077551123327958  0.2562775282821344  
  0.8315644827514889  0.1301013004137529  0.8433025164175213  
  0.8294860414670658  0.8693225736933066  0.8470918232621046  
  0.1718038868275448  0.1334379732973963  0.1264360958787919  
  0.6669713365621469  0.3534686329091643  0.1202706967135684  
  0.3489983276162776  0.5962619330611992  0.8800438945173178  
  0.3229518371372130  0.3442530487840347  0.9093501789606500  
  0.6682808307515584  0.6134117515351758  0.1142733962494921  
  0.1167928637242322  0.6233509908805063  0.4213092598778069  
  0.8547042534588633  0.3135210176944248  0.5356062212455514  
  0.8471159957430874  0.6991885649296473  0.5269393389190177  
  0.1549836753748838  0.2152734013624923  0.5555020538589124  
  0.6470153174751969  0.1682332758406010  0.4384329951327902  
  0.3519366267606494  0.8389007304606666  0.5493341711234609  
  0.3621853587160971  0.2598633124488467  0.5393101042892265  
  0.6478153434986614  0.7796139701822586  0.4398810788533533  
  0.1988157154301204  0.2134404252853998  0.5786646574421004  
  0.8250918774028246  0.7425541518213777  0.4405656647360183  
  0.8284889536917928  0.2724044072261691  0.4503493839500896  
  0.1473362958027343  0.6613531911063568  0.4995298881951651  
  0.6781770278916691  0.7457372077758128  0.5159390359258258  
  0.3184264561218417  0.2374646889488566  0.5318346030609530  
  0.3218074342774022  0.7951530954550483  0.4726099585041147  
  0.6771918743808706  0.2077243698179960  0.5169796061035195  
  0.1698086754656711  0.9492678269927088  0.8119748615553204  
  0.8368364535300405  0.0134009008236685  0.1907020132357303  
  0.7347806450305427  0.0007195034740071  0.2735559173630324  
  0.2583580131110538  0.8454224359630277  0.7726038147500626  
  0.6641868682738608  0.4737928434881075  0.7731213195302543  
  0.3126237541558295  0.4490673057483882  0.2424789143638600  
  0.2139218665663765  0.5492688552139479  0.2744356268009968  
  0.7669849712569184  0.4839245591053616  0.6949552769540532  
  0.2535239954465217  0.1077170196197597  0.2985175111739658  
  0.7589171816329038  0.9892150228105808  0.6899784511890732  
  0.7381933520963097  0.4961942678434744  0.2759096579354438  
  0.2704542209712998  0.4777429361522201  0.7252948593035259  
  0.3623746398889950  0.0549511895232526  0.2037528542190011  
  0.6419879604112273  0.9734527681013280  0.7721599313561637  
  0.8555534961953715  0.5099820699065744  0.1996733557567029  
  0.1543717932854658  0.5853641016743811  0.7798159734664188  
  0.4991032229563390  0.9630238290501844  0.9951734325101540  
  0.0027348012213582  0.5624116387380794  0.9844887530924240  
  0.4983445164136813  0.4630268259978301  0.4953904009535787  
  0.0027181969221332  0.0646095235474986  0.4844532234478763  
  0.3803207105752253  0.9388325462520452  0.9462602912732400  
  0.6143274707910090  0.9774801332550602  0.0508566554110461  
  0.8871359327065577  0.5014577958659429  0.9237594330689248  
  0.1203107152541311  0.6673123543449616  0.0375955143206702  
  0.0661230272232876  0.8963382172937878  0.0244602291619516  
