N    C    H    Cd   Ni   O    Li
   1.00000000000000     
  17.5553782299571992  -0.4849306300983940   1.0708888739134199
  -0.2323765904901360   7.6665723122679301  -0.0223413066633215
  -1.6996481137522301   0.0440666442196480   7.2978621243231201
N    C    H    Cd   Ni   O    Li
12  20  40  2  2  4  1  
Direct
  0.4907200214846741  0.1973205001908106  0.7848269529848088  
  0.5170386685798600  0.7668994080795740  0.2322717867289273  
  0.5283057291249884  0.2062889605546641  0.2412255650320389  
  0.4827516150441087  0.7569257225474429  0.7827007539998653  
  0.9805844256009790  0.7211179346726999  0.7174678258440734  
  0.0019020908176489  0.2997461881725503  0.1699986673317742  
  0.0253004819358610  0.7530610248304376  0.1644184030995847  
  0.9747351776112432  0.2819892019545199  0.7174352636241845  
  0.2762797408991010  0.0220375700031171  0.2074693680961125  
  0.7205007754584039  0.9919334568943472  0.7724582660491587  
  0.7766531767071322  0.5437943585176256  0.1800553813702232  
  0.2460253586586237  0.4799805324400470  0.9029451286256442  
  0.4953572901060518  0.3088199753052162  0.6783446154875669  
  0.5115891524460191  0.6559729501025530  0.3388783867392489  
  0.5195801860811576  0.3144652790045777  0.3447312043240133  
  0.4894923082713198  0.6497454500896229  0.6764089086491820  
  0.9850390990336548  0.8319527162527769  0.6102200332906756  
  0.9992821959380808  0.1866372240417672  0.2755370989778929  
  0.0114974414996563  0.8507951554007400  0.2730509858466347  
  0.9796820124608058  0.1742102253568685  0.6106413438291779  
  0.3496191672032776  0.0114722378808015  0.1857111630236448  
  0.6474301874308673  0.9894868129439278  0.8142517966613869  
  0.8487823929467798  0.5277384795753028  0.1392466025704496  
  0.1681317902726181  0.4526971085380978  0.8855666476371810  
  0.2594384647894545  0.0544646537464880  0.3869733608231727  
  0.7297016666263232  0.0052810645102892  0.5827439205882448  
  0.7672631112239373  0.5425979667408780  0.3705896374166555  
  0.2886091532169189  0.3632435871613127  0.8057705348483727  
  0.2104593267105621  0.9967805438678458  0.0646837807550922  
  0.7852466695996784  0.9860634564585512  0.8999288822556207  
  0.7128619363395634  0.5571039620496783  0.0518511230385575  
  0.2871570799901502  0.6084056644720047  0.0069647296526615  
  0.2218169225701967  0.9471207419174408  0.4272416897196296  
  0.7652607556877159  0.1236713417249374  0.5621762376937117  
  0.7587865066183356  0.8918120735133566  0.5456304722935318  
  0.2289818210739860  0.1761107306362888  0.3855038188996253  
  0.7332945069829582  0.4245413467533043  0.3997268624308574  
  0.3279519784887663  0.4427472942162509  0.7350108814709092  
  0.3215171775511633  0.2744616845663019  0.9006018199907131  
  0.7361003173400256  0.6565342916574480  0.3970798357603882  
  0.1288790031164875  0.6063300325509059  0.4784817753850234  
  0.7520279239335821  0.1893220647251679  0.2476084181934349  
  0.8639091557826472  0.9260741657466284  0.3360115968141555  
  0.1285366091549379  0.0404768227433628  0.6145536857611806  
  0.6732635673785892  0.3428290739837737  0.6699951593691094  
  0.3297701482018054  0.7284315399376766  0.5759913977535549  
  0.3585236233129720  0.3989264704614914  0.3748288817585553  
  0.6345387355932748  0.6455472488006300  0.6055172436376672  
  0.1598896548297266  0.0241861330015228  0.6935599276864619  
  0.8209085113189397  0.9118003166261716  0.3057112640281798  
  0.7133845204931609  0.1608058874543665  0.1939533114097455  
  0.1692393822797402  0.6310484959849088  0.5247713704458412  
  0.6758378423490266  0.6660878008949469  0.6480781106162868  
  0.3283013159512924  0.4356124014497007  0.3030876865257312  
  0.3020834192538622  0.6859408799172163  0.4996438525287986  
  0.7143492539039201  0.3433231369123584  0.7172576685361655  
  0.1711490670734153  0.1025501770502472  0.0743227755399844  
  0.8408815624920489  0.9889574384186064  0.8556924116785964  
  0.7779965006419990  0.9767234391000692  0.0400436974276531  
  0.2317589479931337  0.0065907034851469  0.9351897833991608  
  0.6574518762031947  0.5688007738606941  0.0947875028693886  
  0.3484445505472133  0.6269793320012885  0.0026462019598901  
  0.2567850530816951  0.6984414839596560  0.0767872412783049  
  0.7202585496185507  0.5559635902478803  0.9115626952707768  
  0.3129656799952678  0.0666038182031204  0.4859973390682492  
  0.6731691502379159  0.0109307077325645  0.4961369921961634  
  0.8239905056158021  0.5472091020871468  0.4576883135828138  
  0.2474892607808886  0.2865753873427818  0.7071617031951760  
  0.3920320894237342  0.0217174698941018  0.3116714260394022  
  0.6016467022568974  0.9958664567171206  0.6952355300499448  
  0.8941483361404546  0.5169572894189518  0.2584875850914243  
  0.1432947825532479  0.3423580270214177  0.7994002923941728  
  0.4991123693141672  0.9834316468510540  0.0108820094076353  
  0.9877012172961416  0.4990978204095118  0.9322123230430920  
  0.5033980606225134  0.4824022808709403  0.5089522722653845  
  0.9927811902144900  0.0089731559243826  0.4422134823000483  
  0.3699743653104486  0.9901969748408488  0.0321569007864366  
  0.6341262388154361  0.9810408964093692  0.9729749343210178  
  0.8617552243175659  0.5249464950821683  0.9789677823522236  
  0.1261702517086113  0.5486993163917065  0.9618390892342976  
  0.1283679728597587  0.7786847436836182  0.0611186249265341  
