N    C    H    Ni   O    Li             
   1.00000000000000     
    17.8138430695322008   -0.0325262286907547    1.5344332379775700
     0.2254033699053068    7.5314190563927745    0.4763693257259420
    -1.6100483698464569    0.9744941690179291    7.3586948785384338
   N    C    H    Ni   O    Li
    12    20    40     4     4     1
Direct
  0.4895382153964388  0.1888248382261684  0.8152415292366886
  0.5048625103316361  0.7863987660988889  0.1911984495765973
  0.5131208602978988  0.1891458634964184  0.2230936640815949
  0.4585286950032985  0.7346546955518695  0.6903844557807193
  0.9844479701022953  0.7023459301191387  0.7361921386001591
  0.9784623823271558  0.3184047295374564  0.1071874219172835
  0.0332919714014126  0.8008553796049590  0.1991823126544313
  0.9790858710844630  0.3034671084354770  0.7108714211229341
  0.2880055548384939  0.0006416032143376  0.2429636855423717
  0.7306335884622581  0.0210166172760385  0.9317584789844545
  0.7433101312882372  0.5414515471929413  0.0199531807159468
  0.2505635144896455  0.4681939774932918  0.8489297220851607
  0.4922639954836466  0.2852930361132642  0.6766900456832395
  0.5022111618579320  0.6505940993894195  0.2930745968194509
  0.5099529191486063  0.2902622102798937  0.3227903189695090
  0.4755681239820189  0.6247469847592361  0.6089340725696901
  0.9905290288611074  0.8376595142313835  0.6339804163442724
  0.9872491053353265  0.2204678367209313  0.2490022427140679
  0.0165270357290087  0.8893579220113306  0.3015663042765486
  0.9831214057036335  0.2022137322780221  0.6110239421394336
  0.3612963432660750  0.0008772987268818  0.2086796428929468
  0.6535582893308265  0.0130483718020185  0.9133252588660778
  0.8204922422877494  0.5428176505417175  0.0421529507394163
  0.1766813419083110  0.5275496885866580  0.8416778286658846
  0.2753172850465230  0.9589903121960881  0.4325581811475047
  0.7691900045603985  0.0390617523729180  0.7708952888281342
  0.7042433694255921  0.5092250278704264  0.1805145538044302
  0.2740825063862971  0.3913394945417654  0.6997503890562303
  0.2271154594164739  0.0407235300434857  0.1124614223253217
  0.7725242457653524  0.0143323165798727  0.0960195474344406
  0.7014751096377750  0.5678695166066312  0.8537839048990710
  0.3038926706861078  0.4801597805305906 -0.0101888525270859
  0.2311877212792078  0.8621104798951080  0.4472857652431160
  0.7999664340103598  0.1631161330009676  0.7574445815846875
  0.8091685077735994  0.9226463049332614  0.7823868427841552
  0.2570547012926486  0.0824292856896217  0.4756301939853693
  0.6741468401125266  0.3844822540938076  0.1847876579934510
  0.3196037498670846  0.4684098867878131  0.6457650014650211
  0.2955200189144245  0.2507690818736168  0.7494067997724303
  0.6634360956546382  0.6223797203787251  0.1758193401298204
  0.2620761800916878  0.8515129228207606  0.8014897937476128
  0.8439723252931476  0.1852136201340939  0.4401589418095782
  0.8354667881472940  0.6825528507379375  0.5328924030738500
  0.1256375889807504  0.1066939731080280  0.6270395547437149
  0.6384336943744191  0.3685995670143847  0.5264783928952377
  0.3104203818272235  0.6226586555895950  0.3481786593900872
  0.3692038717853907  0.2931089422428120  0.4306042068842122
  0.6414928534799594  0.8786312289218231  0.4085202674216808
  0.1664511665947324  0.0839006603702779  0.6655541272404470
  0.8049659535599735  0.7212650805109013  0.4566795393988622
  0.8027906534132480  0.1927556120030149  0.4024337598131740
  0.3035123426421655  0.8611878485050564  0.8267623924388018
  0.6644993153577798  0.8317078797334352  0.4952842144225825
  0.3319467871524084  0.3082567429152297  0.3703321687300927
  0.2684578551198963  0.6278356917363843  0.3222233954745052
  0.6788955935619811  0.3670069273088001  0.5695922162188665
  0.1711144340894103  1.0320450053895434  0.1526884272829068
  0.7430224272086471  0.9984933229812625  0.2134647859309330
  0.8330876562325721  0.0256275068414835  0.1019952468103699
  0.2369323282562982  0.0714847695813443 -0.0270660650841747
  0.7313733759964558  0.5900419997820742  0.7369908102957500
  0.3616242407634195  0.4345275474559028 -0.0149378257565976
  0.2865971024316436  0.5426312227844700  0.0963519568077411
  0.6404500016633143  0.5661621364145579  0.8451693215084697
  0.3277210013172996  0.9007762921340728  0.5173117408047160
  0.7271416275523391  0.0457608207353073  0.6514643975870696
  0.7458853268229982  0.4970067368744258  0.3014762784251966
  0.2259609164087343  0.3982419470114169  0.5933465407687021
  0.4030585756626430  0.9637150684779995  0.3303716252376122
  0.6256567884177755  0.0207590811353490  0.7742745844244124
  0.8482186007341989  0.5125945575373047  0.1827601114893867
  0.1396680916448534  0.5093372276277975  0.7193158273817635
  0.4993002731093656  0.0258541654675422  0.0450708108999494
  0.9564979633752483  0.4670403010884229  0.8679216485781932
  0.4969275593077023  0.4554905123127766  0.4725002057258293
  0.9946767965889990  0.0404022947305470  0.4552007861293567
  0.3795863685664136  0.0403739113718257  0.0522134985405685
  0.6185684337086846 -0.0010476085056387  0.0476035898294908
  0.8563884277452291  0.5748918041968646  0.9083655385054867
  0.1534237403503253  0.5957512445423667  0.9647093292941362
  0.0584822908224515  0.6838438235864097  0.0021992581052650
 
             NaN             NaN             NaN
             NaN             NaN             NaN
             NaN             NaN             NaN
             NaN             NaN             NaN
             NaN             NaN             NaN
             NaN             NaN             NaN
             NaN             NaN             NaN
             NaN             NaN             NaN
             NaN             NaN             NaN
             NaN             NaN             NaN
             NaN             NaN             NaN
             NaN             NaN             NaN
             NaN             NaN             NaN
             NaN             NaN             NaN
             NaN             NaN             NaN
             NaN             NaN             NaN
             NaN             NaN             NaN
             NaN             NaN             NaN
             NaN             NaN             NaN
             NaN             NaN             NaN
             NaN             NaN             NaN
             NaN             NaN             NaN
             NaN             NaN             NaN
             NaN             NaN             NaN
             NaN             NaN             NaN
             NaN             NaN             NaN
             NaN             NaN             NaN
             NaN             NaN             NaN
             NaN             NaN             NaN
             NaN             NaN             NaN
             NaN             NaN             NaN
             NaN             NaN             NaN
             NaN             NaN             NaN
             NaN             NaN             NaN
             NaN             NaN             NaN
             NaN             NaN             NaN
             NaN             NaN             NaN
             NaN             NaN             NaN
             NaN             NaN             NaN
             NaN             NaN             NaN
             NaN             NaN             NaN
             NaN             NaN             NaN
             NaN             NaN             NaN
             NaN             NaN             NaN
             NaN             NaN             NaN
             NaN             NaN             NaN
             NaN             NaN             NaN
             NaN             NaN             NaN
             NaN             NaN             NaN
             NaN             NaN             NaN
             NaN             NaN             NaN
             NaN             NaN             NaN
             NaN             NaN             NaN
             NaN             NaN             NaN
             NaN             NaN             NaN
             NaN             NaN             NaN
             NaN             NaN             NaN
             NaN             NaN             NaN
             NaN             NaN             NaN
             NaN             NaN             NaN
             NaN             NaN             NaN
             NaN             NaN             NaN
             NaN             NaN             NaN
             NaN             NaN             NaN
             NaN             NaN             NaN
             NaN             NaN             NaN
             NaN             NaN             NaN
             NaN             NaN             NaN
             NaN             NaN             NaN
             NaN             NaN             NaN
             NaN             NaN             NaN
             NaN             NaN             NaN
             NaN             NaN             NaN
             NaN             NaN             NaN
             NaN             NaN             NaN
             NaN             NaN             NaN
             NaN             NaN             NaN
             NaN             NaN             NaN
             NaN             NaN             NaN
             NaN             NaN             NaN
             NaN             NaN             NaN
