H    Li   C    N    O    Cu             
   1.00000000000000     
     7.3987302930219476   -0.8460626671232054    0.6223569937664684
    -0.1534455048201371    7.5352965851447236    0.4919697701040431
     0.2957551311243307    0.4411377197809272    6.8695881538518941
   H    Li   C    N    O    Cu
    14     1    10     6     2     2
Selective dynamics
Direct
  0.5740264379405570  0.9434133719173532  0.6781780199475008   T   T   T
  0.2294420239588042  0.0349103331969984  0.2857498803565159   T   T   T
  0.3982481683295526  0.2275623770713806  0.2175356784056584   T   T   T
  0.2502871458585160  0.2010072933902654  0.4471939895848858   T   T   T
  0.6086198662086083 -0.0046007431204489  0.1810359648450936   T   T   T
  0.4468366989146934  0.8058269053556012  0.2969355012334007   T   T   T
  0.6518170492284900  0.8647898172809985  0.3997413423643887   T   T   T
  0.2874730054780881  0.5095195945159640  0.5560716888397992   T   T   T
  0.6058004840887775  0.3641685362791996  0.9355877443394028   T   T   T
  0.6486614191072092  0.6036214509977105  0.9437604470770179   T   T   T
  0.7307547688296594  0.5116542353585360  0.7296988029056695   T   T   T
  0.3284228084730589  0.6764856639923986  0.9693864142203351   T   T   T
  0.2726318816804588  0.4363659891360317  0.0364812398330971   T   T   T
  0.1750277408022640  0.5498099932476144  0.8415944454357421   T   T   T
  0.7247386930638238  0.4299492497685422  0.2780415426531479   T   T   T
  0.8996708220641053  0.8088866268140322  0.0597179615676035   T   T   T
  0.9401277418253090  0.2132891491167048  0.6576911270699874   T   T   T
  0.0584689544894557  0.8689154957548278  0.6789125835031848   T   T   T
  0.9407961564427652  0.1824839641910301  0.0482595955568992   T   T   T
  0.4735833742789780  0.0325564927929709  0.6350371420265529   T   T   T
  0.3257042029369234  0.1307220137600640  0.3436270194771467   T   T   T
  0.5452326001370120  0.9186541022675205  0.3241564106416706   T   T   T
  0.4274799757261943  0.5007839510457638  0.5867416150153811   T   T   T
  0.6187235371857646  0.4994495355296015  0.8497810721948325   T   T   T
  0.2979724307720198  0.5476206849967112  0.9126536049983734   T   T   T
  0.9183959363928315  0.6975859545103406  0.1891831117295174   T   T   T
  0.9682027526967785  0.3523994657176423  0.5530692035260256   T   T   T
  0.0687278305734927  0.7634442953142465  0.5681745030974400   T   T   T
  0.8692376269500686  0.2776933996878063  0.1439436799895819   T   T   T
  0.4540210270384102  0.0352063627923046  0.4413948993399721   T   T   T
  0.4505341767590999  0.5227751369963081  0.7717724846871296   T   T   T
  0.3945152426768752  0.1153050399118838  0.7552540497626927   T   T   T
  0.5484762051246271  0.4761674638652509  0.4551952377609518   T   T   T
  0.9954165737142370  0.5850236361193459  0.4157255806236598   T   T   T
  0.9692546402525213  0.0195971604275142  0.8592814153897393   T   T   T
 
  0.00000000E+00  0.00000000E+00  0.00000000E+00
  0.00000000E+00  0.00000000E+00  0.00000000E+00
  0.00000000E+00  0.00000000E+00  0.00000000E+00
  0.00000000E+00  0.00000000E+00  0.00000000E+00
  0.00000000E+00  0.00000000E+00  0.00000000E+00
  0.00000000E+00  0.00000000E+00  0.00000000E+00
  0.00000000E+00  0.00000000E+00  0.00000000E+00
  0.00000000E+00  0.00000000E+00  0.00000000E+00
  0.00000000E+00  0.00000000E+00  0.00000000E+00
  0.00000000E+00  0.00000000E+00  0.00000000E+00
  0.00000000E+00  0.00000000E+00  0.00000000E+00
  0.00000000E+00  0.00000000E+00  0.00000000E+00
  0.00000000E+00  0.00000000E+00  0.00000000E+00
  0.00000000E+00  0.00000000E+00  0.00000000E+00
  0.00000000E+00  0.00000000E+00  0.00000000E+00
  0.00000000E+00  0.00000000E+00  0.00000000E+00
  0.00000000E+00  0.00000000E+00  0.00000000E+00
  0.00000000E+00  0.00000000E+00  0.00000000E+00
  0.00000000E+00  0.00000000E+00  0.00000000E+00
  0.00000000E+00  0.00000000E+00  0.00000000E+00
  0.00000000E+00  0.00000000E+00  0.00000000E+00
  0.00000000E+00  0.00000000E+00  0.00000000E+00
  0.00000000E+00  0.00000000E+00  0.00000000E+00
  0.00000000E+00  0.00000000E+00  0.00000000E+00
  0.00000000E+00  0.00000000E+00  0.00000000E+00
  0.00000000E+00  0.00000000E+00  0.00000000E+00
  0.00000000E+00  0.00000000E+00  0.00000000E+00
  0.00000000E+00  0.00000000E+00  0.00000000E+00
  0.00000000E+00  0.00000000E+00  0.00000000E+00
  0.00000000E+00  0.00000000E+00  0.00000000E+00
  0.00000000E+00  0.00000000E+00  0.00000000E+00
  0.00000000E+00  0.00000000E+00  0.00000000E+00
  0.00000000E+00  0.00000000E+00  0.00000000E+00
  0.00000000E+00  0.00000000E+00  0.00000000E+00
  0.00000000E+00  0.00000000E+00  0.00000000E+00
