H    Li   C    N    O    Cu             
   1.00000000000000     
     7.0313166462369798   -0.9428838273695250    0.5773991239412990
    -0.2400747192708420    7.1694525029891798    0.0173173549334165
     0.1700903530387670   -0.0057960955022483    6.7379434596884602
   H    Li   C    N    O    Cu
    14     1    10     6     2     2
Selective dynamics
Direct
  0.5799144409261384  0.9412035055048728  0.6796991766167476   T   T   T
  0.2145572788436277  0.0027555596834048  0.2779733197338448   T   T   T
  0.3643502643278493  0.2273019230823642  0.2718834084008382   T   T   T
  0.1992564282753467  0.1551609934889071  0.4859639197650109   T   T   T
  0.5992525944730630  0.0268315682033850  0.1778760303725561   T   T   T
  0.4855446872144766  0.7979639151873235  0.2652679453633742   T   T   T
  0.6933127307922609  0.9150548025418873  0.3728550419171495   T   T   T
  0.3195105436733945  0.6014774912506263  0.5265516108598666   T   T   T
  0.5460792709795453  0.3497745582050450  0.9567109761436902   T   T   T
  0.6922125810437524  0.5849566459843375  0.9128542855751752   T   T   T
  0.7060099387451504  0.4063759694035976  0.7347089447618655   T   T   T
  0.3710627770629706  0.7130247764708796  0.9751638514409720   T   T   T
  0.2483366511307767  0.4731623685386452  0.9999965218900164   T   T   T
  0.1955683506689884  0.6256568053859873  0.8135726086778707   T   T   T
  0.7257001390238754  0.5359430824998564  0.2050668683937015   T   T   T
  0.9861390366930661  0.8126347414772818  0.0775862275222057   T   T   T
  0.9963062167070922  0.2470497611910860  0.7320112121893851   T   T   T
  0.9260914740255664  0.8563317806826769  0.6884173251466607   T   T   T
  0.9336351713223945  0.1997241522031623  0.1267244209182909   T   T   T
  0.4611214517255593  0.0165086003642870  0.6513737554972991   T   T   T
  0.2953689810643932  0.1068318827855377  0.3689145502560788   T   T   T
  0.5617204129608381  0.9347006799457135  0.3110631136072844   T   T   T
  0.4453692431444624  0.5413365697501228  0.5598632301742751   T   T   T
  0.6085570846343817  0.4617113077752611  0.8458973890906106   T   T   T
  0.3100848631402284  0.5888938336361783  0.8937781126008244   T   T   T
  1.0311189119275701  0.7015723497166487  0.1847341425415852   T   T   T
  1.0262861485097650  0.3671376077625278  0.6090611540063304   T   T   T
  0.8997654115263491  0.7300568198871807  0.5782817295998360   T   T   T
  0.8834366466925186  0.3213678114873926  0.2264321698469407   T   T   T
  0.4396667031156621  0.0222725488289022  0.4549003682269927   T   T   T
  0.4563631677754997  0.5278570157992920  0.7554127198506904   T   T   T
  0.3650474855368215  0.0838653446576261  0.7903001916974829   T   T   T
  0.5588639620837368  0.4930460373527412  0.4229046746245639   T   T   T
  0.9848828021188757  0.5305840653415805  0.4088601309540521   T   T   T
  0.9726293680819065  0.0285292857085900  0.9072081590503311   T   T   T
 
             NaN             NaN             NaN
             NaN             NaN             NaN
             NaN             NaN             NaN
             NaN             NaN             NaN
             NaN             NaN             NaN
             NaN             NaN             NaN
             NaN             NaN             NaN
             NaN             NaN             NaN
             NaN             NaN             NaN
             NaN             NaN             NaN
             NaN             NaN             NaN
             NaN             NaN             NaN
             NaN             NaN             NaN
             NaN             NaN             NaN
             NaN             NaN             NaN
             NaN             NaN             NaN
             NaN             NaN             NaN
             NaN             NaN             NaN
             NaN             NaN             NaN
             NaN             NaN             NaN
             NaN             NaN             NaN
             NaN             NaN             NaN
             NaN             NaN             NaN
             NaN             NaN             NaN
             NaN             NaN             NaN
             NaN             NaN             NaN
             NaN             NaN             NaN
             NaN             NaN             NaN
             NaN             NaN             NaN
             NaN             NaN             NaN
             NaN             NaN             NaN
             NaN             NaN             NaN
             NaN             NaN             NaN
             NaN             NaN             NaN
             NaN             NaN             NaN
