N    C    H    Cu   O    Li             
   1.00000000000000     
    17.3036913505021523   -0.1413623679087950    0.0912721283273203
     0.3631954215441796    7.9516814554687567    0.6618315528699590
    -1.9329839959163624    1.2419879818786674    7.2011020437292252
   N    C    H    Cu   O    Li
    12    20    40     4     4     1
Direct
  0.5093924582359615  0.1794682701543698  0.8253422547634583
  0.5159022534908416  0.8144576543979135  0.1901580143799904
  0.5470072474518221  0.2002338957062797  0.2454645133031896
  0.4718552750173581  0.7100287098052315  0.7085442008264915
  0.9852012219387210  0.6545926670225626  0.8077358964927894
  0.9888273761633710  0.2937821552612901  0.1511206492451908
  0.0384338147812932  0.7468505131324150  0.2699317786003550
  0.9481171148867583  0.2695590052343403  0.7208442925600503
  0.2619462284393751  0.0190837256829193  0.2281541496116378
  0.7424397489898118  0.9623764883015282  0.8194519712403076
  0.7526607919299022  0.5256077244042976  0.1377982069098671
  0.2403644822403625  0.5167477411396768  0.8213070491459106
  0.5026400942399573  0.2763770599762304  0.6778001332999951
  0.5080222711112446  0.6741844879694114  0.2719578049568532
  0.5409677892432312  0.3031276396648278  0.3322535201790733
  0.4903432688250008  0.6178793785400425  0.6208203968061732
  0.9968859366100916  0.7902386139279209  0.7207497250265010
 -0.0007011512503368  0.1912422115183764  0.2971013762627561
  0.0169349711498903  0.8349070718207598  0.3574159512865258
  0.9536334174491732  0.1646439352876108  0.6356793884610450
  0.3169690074498555  0.0732850256814493  0.1258612555248316
  0.6741905945786774  0.9566536068654568  0.8880979409453511
  0.8230935448920607  0.5122654901938171  0.0814790557416138
  0.1706670538611406  0.5063273439296010  0.8773503724767308
  0.2899588907932712  0.9926665139420059  0.4350545383114006
  0.7338630261561433  0.9759268247695839  0.6184023005432516
  0.7573393443412675  0.5302980018194851  0.3331878935446890
  0.2416083512720754  0.4804769071427221  0.6399672022193589
  0.1803459773677946  1.0211047261837398  0.1408934803407668
  0.8150847260456746  0.9691166896387435  0.9322828961992359
  0.6805589403630856  0.5253870934650910  0.0190793873501836
  0.3076216645402306  0.5619859414127061  0.9273696133886378
  0.2627310639035976  0.8852153124625981  0.5072449070923954
  0.7569983575277469  0.0956596003535918  0.5578352427805643
  0.7682137359011841  0.8654759038250681  0.6011533712764074
  0.2747989913636147  0.1097626126364256  0.4768715832116000
  0.7270656957194768  0.4235083442529400  0.3966927751017157
  0.2721414850874281  0.5796619519346146  0.5654151498858895
  0.2735271744540987  0.3524483723224771  0.6650257079345062
  0.7276160679196114  0.6533822219887746  0.3346976595480102
  0.1739406789782915  0.8598951231383463  0.7185514824183098
  0.8170063324034476  0.1738226517763088  0.2890032837103189
  0.8721899370749020  0.8137344393537960  0.4002254178726093
  0.1219528287631252  0.2036516809508832  0.5920237881511282
  0.6772654502555358  0.3088744840917310  0.6807375394463078
  0.3577487851756952  0.6644493908066825  0.3549890601236076
  0.3629856333903975  0.3231348728748971  0.4039906712126324
  0.6361539073538017  0.6750670857461801  0.5626556351182237
  0.1549674302412237  0.1652410777861783  0.6800580240904347
  0.8285431311334085  0.8470253483200993  0.3658088939400519
  0.7768529190262196  0.1550964679230766  0.2350120164096306
  0.1953237224943175  0.8746233974629779  0.8122358993959649
  0.6798253800828546  0.6432951863154273  0.6019208686672076
  0.3306403466621371  0.3640072378489184  0.3155722216466782
  0.3141120350870118  0.6733856986021524  0.3038160032497372
  0.7180783421422005  0.3275829949379727  0.7311298335838324
  0.1338540357931823  0.1076130764064823  0.1612133719447126
  0.8658084296200896  0.9812182679400241  0.8717556118264396
  0.8189574992982651  0.9675282575578080  0.0779716547014910
  0.1581456992008749  0.0222007017533958 -0.0065276409324074
  0.6275122302847752  0.5332756815883294  0.0697008144226987
  0.3604440729465700  0.5734307329383740  0.8742428825182939
  0.3042865672349615  0.5921297350903427  0.0580812697288755
  0.6790244176317974  0.5136547763726727  0.8783840295475802
  0.3554432873453985  0.9606616566480604  0.4850313517766989
  0.6705834897141182  0.9786394376170209  0.5448623797071529
  0.8202104529846396  0.5163666489633627  0.4144458830993962
  0.1800080009215059  0.4838961491129025  0.5546512520313295
  0.3776372770937018  0.0783559570344814  0.2174769014876470
  0.6184655308115685  0.9519305905339084  0.7806189704473261
  0.8777288773261963  0.5100504385806193  0.1948494736759408
  0.1203021617558582  0.4723967955528318  0.7745331501549615
  0.5304422920767621  0.0443125845791315  0.0781311858200198
  0.9602918604319011  0.4203696404337656  0.8899210752042457
  0.5103691593154657  0.4648300474494044  0.4690708895999660
  0.9926166574794855 -0.0035827785340622  0.5080311482455606
  0.3010683942507741  0.1187155245134112  0.9522879672628751
  0.6773385876972882  0.9603800336410568  0.0525565463445114
  0.8233229176150858  0.5000776991370049  0.9208575411251968
  0.1648278901745071  0.5358151409011950  0.0300623160500616
  0.0753984969982184  0.6385896961889701  0.0873952265407172
 
             NaN             NaN             NaN
             NaN             NaN             NaN
             NaN             NaN             NaN
             NaN             NaN             NaN
             NaN             NaN             NaN
             NaN             NaN             NaN
             NaN             NaN             NaN
             NaN             NaN             NaN
             NaN             NaN             NaN
             NaN             NaN             NaN
             NaN             NaN             NaN
             NaN             NaN             NaN
             NaN             NaN             NaN
             NaN             NaN             NaN
             NaN             NaN             NaN
             NaN             NaN             NaN
             NaN             NaN             NaN
             NaN             NaN             NaN
             NaN             NaN             NaN
             NaN             NaN             NaN
             NaN             NaN             NaN
             NaN             NaN             NaN
             NaN             NaN             NaN
             NaN             NaN             NaN
             NaN             NaN             NaN
             NaN             NaN             NaN
             NaN             NaN             NaN
             NaN             NaN             NaN
             NaN             NaN             NaN
             NaN             NaN             NaN
             NaN             NaN             NaN
             NaN             NaN             NaN
             NaN             NaN             NaN
             NaN             NaN             NaN
             NaN             NaN             NaN
             NaN             NaN             NaN
             NaN             NaN             NaN
             NaN             NaN             NaN
             NaN             NaN             NaN
             NaN             NaN             NaN
             NaN             NaN             NaN
             NaN             NaN             NaN
             NaN             NaN             NaN
             NaN             NaN             NaN
             NaN             NaN             NaN
             NaN             NaN             NaN
             NaN             NaN             NaN
             NaN             NaN             NaN
             NaN             NaN             NaN
             NaN             NaN             NaN
             NaN             NaN             NaN
             NaN             NaN             NaN
             NaN             NaN             NaN
             NaN             NaN             NaN
             NaN             NaN             NaN
             NaN             NaN             NaN
             NaN             NaN             NaN
             NaN             NaN             NaN
             NaN             NaN             NaN
             NaN             NaN             NaN
             NaN             NaN             NaN
             NaN             NaN             NaN
             NaN             NaN             NaN
             NaN             NaN             NaN
             NaN             NaN             NaN
             NaN             NaN             NaN
             NaN             NaN             NaN
             NaN             NaN             NaN
             NaN             NaN             NaN
             NaN             NaN             NaN
             NaN             NaN             NaN
             NaN             NaN             NaN
             NaN             NaN             NaN
             NaN             NaN             NaN
             NaN             NaN             NaN
             NaN             NaN             NaN
             NaN             NaN             NaN
             NaN             NaN             NaN
             NaN             NaN             NaN
             NaN             NaN             NaN
             NaN             NaN             NaN
