N    C    H    Fe   Ni   O    Li        
   1.00000000000000     
    17.1734073688713593    0.2367552133621650    0.2251505539319980
    -0.4772900756359295    6.8866813514714966    0.0168156531365931
    -0.9016746184372666   -0.0770860557993212    7.0007488271173894
   N    C    H    Fe   Ni   O    Li
    12    20    40     2     2     4     1
Direct
  0.5021452034133280  0.1612342734018201  0.8068183908011227
  0.4945379199431797  0.7725756504855187  0.1913641864389417
  0.4971978134498780  0.1631332075458218  0.1898064883592753
  0.5001238306659475  0.7720277195000105  0.8074557996533862
  1.0017655871702302  0.7365222774815399  0.7829165867353989
 -0.0018091985587609  0.3498618711098532  0.1705786492897520
  0.9945632787679408  0.7412310209102498  0.1652881663506698
  0.0055702484520564  0.3458674536962376  0.7902774760063399
  0.2588041115205025  0.9775435444427514  0.0497801826224318
  0.7398376070887487  0.9935605174922608  0.9791397664820091
  0.7563565308185652  0.4952445727486493  0.9896015836590096
  0.2455279355535346  0.5251327566446239  0.0043106696259658
  0.5030307073661917  0.2792025340114416  0.6869463729082125
  0.4952556493143369  0.6553948420630340  0.3121408254632302
  0.4979576399599101  0.2804923113641557  0.3106536827723428
  0.5007450363118340  0.6550752445127268  0.6868807030240403
  1.0010775564499665  0.8544800302537905  0.6619580693972501
 -0.0008426461140053  0.2335810984834164  0.2920934456315729
  0.9961159726405795  0.8584406842699961  0.2873025403878156
  0.0043660863047472  0.2300762749748888  0.6679710485431112
  0.3378904018916821  0.9826751583469060  0.0785546040000010
  0.6607310214626239  0.9824924372944018  0.9265777148994008
  0.8351926695740183  0.5079084376170185  0.0428671573501868
  0.1714760362709582  0.5746477125113045  0.9315565667946918
  0.2159938277523851  0.0278552112374171  0.2079098960692476
  0.7930729428487784  0.9987121549349247  0.8308407653993989
  0.7024476225010048  0.4891738075935593  0.1372497197050068
  0.3032524745445263  0.4943039099505092  0.8708748613628466
  0.2117577020153543  0.9169987341675780  0.8791979677779750
  0.7722974277035206  0.0003798725235498  0.1647833394081123
  0.7242832293569106  0.4889422761150513  0.8040456912452622
  0.2692873397197523  0.5205185574788178  0.1936314375541743
  0.1813037260170828  0.9007883149261958  0.2536515432224137
  0.8306669408232416  0.1329751181714610  0.8440084158020927
  0.8300013241307436  0.8736821821419697  0.8460079239312945
  0.1774578315440876  0.1467556577531993  0.1658756242529528
  0.6650595634857563  0.3547239750274118  0.1231332144324569
  0.3503718180259669  0.6090449082849023  0.8865489498856294
  0.3284192126768747  0.3531839257062143  0.8994690291037096
  0.6652337791834352  0.6135605462179657  0.1208183969413910
  0.1263203144837696  0.6341166994271786  0.4442877024459556
  0.8513083934702257  0.3164734965738459  0.5302132153254826
  0.8473933186242397  0.6976840854342287  0.5275267800588676
  0.1514590904918944  0.2577794067020320  0.5194805803026765
  0.6447148952355574  0.1728657445439103  0.4444875712324339
  0.3494119443707590  0.8385180546501417  0.5775883465451463
  0.3570813076725538  0.2324042106191462  0.5614771877102546
  0.6449651264334102  0.7836952116842631  0.4450417974557583
  0.1906244579078030  0.2342966256439211  0.5703947413502446
  0.8229038852569143  0.7400245010007084  0.4442529527983029
  0.8222670876863019  0.2753474435246125  0.4506883737562678
  0.1548573734655647  0.6896529659457975  0.5155982492688169
  0.6787467044730745  0.7551093389225124  0.5146796301544490
  0.3204001013277444  0.2700348193435375  0.5094557657496593
  0.3253598886226318  0.7965720716088277  0.4899890397823929
  0.6782069020519617  0.2087758089090336  0.5159354386222617
  0.1680005382705928  0.0248858782422391  0.8351129579775415
  0.8357829922781502  0.0114257821995457  0.1926858595927192
  0.7331708774474578  0.9972615201064763  0.2746590135904499
  0.2471120788574122  0.8897143680482367  0.7642159329290862
  0.6607849439504058  0.4794465717713241  0.7747990477959863
  0.3305092506455471  0.4966239602492972  0.2388387198941008
  0.2263724135269095  0.5435772369495789  0.2912057753833746
  0.7636268870216573  0.4923377307944327  0.6946706879457619
  0.2569821995789450  0.0776752450671087  0.3303098639350853
  0.7585759898637285  0.9932617598757894  0.6906261974767429
  0.7364600205887707  0.4951636680036928  0.2780153511568714
  0.2737798640030040  0.4946501233141733  0.7251482640340680
  0.3637430304682407  0.0165435288428652  0.2248473915621240
  0.6415836569150161  0.9777696596701552  0.7733737763916472
  0.8538103695928801  0.5106746053740899  0.1962681921860749
  0.1561468430383961  0.5443676439086433  0.7796723171322743
  0.4983277616828051  0.9668626059783887  0.9985760240122754
 -0.0008326709740953  0.5407478303775598  0.9778207410553695
  0.4995266045422757  0.4674384472205050  0.4992414167489971
  0.0003404955767098  0.0436339641051295  0.4774062249747902
  0.3803164502068588  0.9513530266302356  0.9475019702939727
  0.6134662324654403  0.9783868360466945  0.0522403006023997
  0.8833150866965420  0.5158385031697494  0.9178919529503126
  0.1172548908714319  0.5779526446960914  0.0478997125656684
  0.0946740279744183  0.8377359717414855  0.9917380242645580
 
             NaN             NaN             NaN
             NaN             NaN             NaN
             NaN             NaN             NaN
             NaN             NaN             NaN
             NaN             NaN             NaN
             NaN             NaN             NaN
             NaN             NaN             NaN
             NaN             NaN             NaN
             NaN             NaN             NaN
             NaN             NaN             NaN
             NaN             NaN             NaN
             NaN             NaN             NaN
             NaN             NaN             NaN
             NaN             NaN             NaN
             NaN             NaN             NaN
             NaN             NaN             NaN
             NaN             NaN             NaN
             NaN             NaN             NaN
             NaN             NaN             NaN
             NaN             NaN             NaN
             NaN             NaN             NaN
             NaN             NaN             NaN
             NaN             NaN             NaN
             NaN             NaN             NaN
             NaN             NaN             NaN
             NaN             NaN             NaN
             NaN             NaN             NaN
             NaN             NaN             NaN
             NaN             NaN             NaN
             NaN             NaN             NaN
             NaN             NaN             NaN
             NaN             NaN             NaN
             NaN             NaN             NaN
             NaN             NaN             NaN
             NaN             NaN             NaN
             NaN             NaN             NaN
             NaN             NaN             NaN
             NaN             NaN             NaN
             NaN             NaN             NaN
             NaN             NaN             NaN
             NaN             NaN             NaN
             NaN             NaN             NaN
             NaN             NaN             NaN
             NaN             NaN             NaN
             NaN             NaN             NaN
             NaN             NaN             NaN
             NaN             NaN             NaN
             NaN             NaN             NaN
             NaN             NaN             NaN
             NaN             NaN             NaN
             NaN             NaN             NaN
             NaN             NaN             NaN
             NaN             NaN             NaN
             NaN             NaN             NaN
             NaN             NaN             NaN
             NaN             NaN             NaN
             NaN             NaN             NaN
             NaN             NaN             NaN
             NaN             NaN             NaN
             NaN             NaN             NaN
             NaN             NaN             NaN
             NaN             NaN             NaN
             NaN             NaN             NaN
             NaN             NaN             NaN
             NaN             NaN             NaN
             NaN             NaN             NaN
             NaN             NaN             NaN
             NaN             NaN             NaN
             NaN             NaN             NaN
             NaN             NaN             NaN
             NaN             NaN             NaN
             NaN             NaN             NaN
             NaN             NaN             NaN
             NaN             NaN             NaN
             NaN             NaN             NaN
             NaN             NaN             NaN
             NaN             NaN             NaN
             NaN             NaN             NaN
             NaN             NaN             NaN
             NaN             NaN             NaN
             NaN             NaN             NaN
