N    C    H    Pb   Pd   O    Li        
   1.00000000000000     
    15.1550417588868012    0.2848117546639140   -1.5413381484130300
     0.3685360327511019    7.4650523507048581    0.0655335437959876
    -2.5812501098365237    0.0928499591031243    7.3278046176394218
   N    C    H    Pb   Pd   O    Li
    12    20    40     2     2     4     1
Direct
  0.4626267461206670  0.2245266724592065  0.7642525046656634
  0.5425552389083684  0.7791736335721836  0.2378978500148203
  0.5396849186574020  0.2130406372007417  0.2345710150014134
  0.4661110990618159  0.7862341921597407  0.7688293370728739
  0.9431451956020903  0.7384481427623786  0.7686893548078766
  0.0694598030195202  0.2488105146249442  0.2958228483062219
  0.0555867008211886  0.7201005906034291  0.2301247728781557
  0.9387683900466532  0.2832862935553180  0.7073213029762484
  0.2681137136350605  0.0124476782757814  0.1932688081614389
  0.7325383044696490  1.0010842238801803  0.8095039666649171
  0.7599527441688557  0.5013164892115224  0.2157653109486188
  0.2434269342959665  0.4992283012456460  0.7864938982543759
  0.4809380521785047  0.3200261962314263  0.6647872209847102
  0.5239721785602012  0.6824032299980175  0.3360740766882835
  0.5233272199655770  0.3147024210201265  0.3349902220800434
  0.4807180825969694  0.6862702551519002  0.6651514608880303
  0.9561675158338052  0.8098970896725813  0.6466414210393043
  0.0293911954985956  0.1501964834604294  0.3507701718736424
  0.0235653891654213  0.7931636728907510  0.3276878439879553
  0.9592608694751916  0.1687522331191738  0.6247770920739226
  0.3502803429433896  0.0151090431406574  0.1605905392050839
  0.6513697176392775  0.9931767793918369  0.8352314162267003
  0.8428733129847235  0.5025426718045907  0.1970773796349674
  0.1592354711817319  0.5167121307656568  0.8001442020924280
  0.2791429478693334  0.9994494863809871  0.3926171017846318
  0.7290067908304678  0.0007235619268368  0.6174030130756767
  0.7587313935374000  0.5064040645581218  0.4028724908762815
  0.2454802351888396  0.4859491087972296  0.6000898438738217
  0.1750255255724947  0.0327500658078504  0.0545661309188850
  0.8249379458224608  0.0014225535811220  0.9636266864984815
  0.6699920016110625  0.4979367804297821  0.0544108322506301
  0.3327973362047807  0.5072576446019506  0.9487198597290752
  0.2459290835811057  0.8794235780602560  0.4125465244380301
  0.7648902914703410  0.1165563312562893  0.5970928155604747
  0.7670590916136528  0.8765868732955706  0.6004773447559089
  0.2414043756599013  0.1196426370520075  0.4186373475913797
  0.7249369803702271  0.3880507778954932  0.4243806614058768
  0.2809593639149350  0.6011454324653398  0.5767184672725392
  0.2862865482773467  0.3610710480613742  0.5949245183394656
  0.7166125261491352  0.6283476640980687  0.4112005976206201
  0.1762288108613311  0.8348641768183925  0.6398521140834788
  0.8125469197625002  0.1691603399189033  0.3299712096893135
  0.8176977438655131  0.8245607832423242  0.3429564772176561
  0.1698904493381863  0.1774173930645259  0.6527290724800506
  0.6770125031840327  0.3430089528638434  0.6755660849265905
  0.3279793382721976  0.6606122853404044  0.3315269963628241
  0.3275267005593170  0.3369519040462164  0.3361030305224307
  0.6744173466621078  0.6717433037784492  0.6678577722993895
  0.2160179143894205  0.1519022267498857  0.7402469198272589
  0.7729523172336583  0.8537253550081492  0.2538964523596114
  0.7709454152000135  0.1411594905061195  0.2411075829055865
  0.2215725711147845  0.8609490966005373  0.7232358331563059
  0.7207406801929708  0.6486217967939005  0.7555740139107076
  0.2805259890814138  0.3571174851732438  0.2486318405281728
  0.2816491850677414  0.6491680295274349  0.2437698790822552
  0.7238589291434375  0.3553134241047721  0.7618674084623651
  0.1560105950015925  0.1132895845940840  0.9223002650500571
  0.8610744098589385  0.8749244235749478  0.0385344942352760
  0.8612971421797134  0.1262700456562322  0.9897088761534107
  0.1202710172506234  0.9850721559825205  0.0996331605588968
  0.6323769864075557  0.6247979345382382  0.9841314156664550
  0.3732706545971823  0.3812750258735746  0.0158164074801910
  0.3613664523827037  0.6378218302761227  0.9913491548150231
  0.6365401838841760  0.3707466010394877  0.0196591441976232
  0.3562075842425502  0.9912188809411696  0.4921483262405092
  0.6532130962906150  0.0095069213226399  0.5108320809227909
  0.8334865535497525  0.5041918965492258  0.5129268181818174
  0.1707246637049261  0.4892566588703482  0.4891019143350911
  0.4189220067836038  0.0086719522559138  0.2929934753162546
  0.5846940860144841  0.9926745581947616  0.7031749986304391
  0.9085293076198458  0.5045030110658805  0.3317102467358790
  0.0946102926649352  0.5019343341626890  0.6663802253290642
  0.5000841733005998  1.0014027063505817 -0.0008622504111312
 -0.0016448901914130  0.4534238295966359  0.0092211190564738
  0.5020796372418197  0.5009351038491977  0.4997807490267159
  0.9871390824462932  0.9728949656118290  0.4813990081834999
  0.3474078682885162  0.0184893655649434  0.9915218916343013
  0.6514109018333012  0.9898070511408397  0.0026517491989911
  0.8459973553058613  0.5012560394990413  0.0356924272256437
  0.1522710420701611  0.5507071509329279  0.9558657273820097
  0.0858689397371864  0.7686729072515572  0.9473456294587317
 
             NaN             NaN             NaN
             NaN             NaN             NaN
             NaN             NaN             NaN
             NaN             NaN             NaN
             NaN             NaN             NaN
             NaN             NaN             NaN
             NaN             NaN             NaN
             NaN             NaN             NaN
             NaN             NaN             NaN
             NaN             NaN             NaN
             NaN             NaN             NaN
             NaN             NaN             NaN
             NaN             NaN             NaN
             NaN             NaN             NaN
             NaN             NaN             NaN
             NaN             NaN             NaN
             NaN             NaN             NaN
             NaN             NaN             NaN
             NaN             NaN             NaN
             NaN             NaN             NaN
             NaN             NaN             NaN
             NaN             NaN             NaN
             NaN             NaN             NaN
             NaN             NaN             NaN
             NaN             NaN             NaN
             NaN             NaN             NaN
             NaN             NaN             NaN
             NaN             NaN             NaN
             NaN             NaN             NaN
             NaN             NaN             NaN
             NaN             NaN             NaN
             NaN             NaN             NaN
             NaN             NaN             NaN
             NaN             NaN             NaN
             NaN             NaN             NaN
             NaN             NaN             NaN
             NaN             NaN             NaN
             NaN             NaN             NaN
             NaN             NaN             NaN
             NaN             NaN             NaN
             NaN             NaN             NaN
             NaN             NaN             NaN
             NaN             NaN             NaN
             NaN             NaN             NaN
             NaN             NaN             NaN
             NaN             NaN             NaN
             NaN             NaN             NaN
             NaN             NaN             NaN
             NaN             NaN             NaN
             NaN             NaN             NaN
             NaN             NaN             NaN
             NaN             NaN             NaN
             NaN             NaN             NaN
             NaN             NaN             NaN
             NaN             NaN             NaN
             NaN             NaN             NaN
             NaN             NaN             NaN
             NaN             NaN             NaN
             NaN             NaN             NaN
             NaN             NaN             NaN
             NaN             NaN             NaN
             NaN             NaN             NaN
             NaN             NaN             NaN
             NaN             NaN             NaN
             NaN             NaN             NaN
             NaN             NaN             NaN
             NaN             NaN             NaN
             NaN             NaN             NaN
             NaN             NaN             NaN
             NaN             NaN             NaN
             NaN             NaN             NaN
             NaN             NaN             NaN
             NaN             NaN             NaN
             NaN             NaN             NaN
             NaN             NaN             NaN
             NaN             NaN             NaN
             NaN             NaN             NaN
             NaN             NaN             NaN
             NaN             NaN             NaN
             NaN             NaN             NaN
             NaN             NaN             NaN
