N    C    H    Pt   Ni   O    Li        
   1.00000000000000     
    20.1588958932084488    0.0027066540299080    0.5308600945134480
     0.0722616424301456    7.2757211090156648    0.0031408225602811
    -2.0996941661292139    0.0269982560110752    6.4879154349386416
   N    C    H    Pt   Ni   O    Li
    12    20    40     2     2     4     1
Direct
  0.4979608401902082  0.1967911496958721  0.8031135716048695
  0.5003685872942161  0.8087971219228776  0.2053230225231935
  0.5022820409799346  0.1972312272975064  0.2063662009715871
  0.4985812079083656  0.8082566525271260  0.8041966732292861
 -0.0005633192481999  0.6989772667648327  0.8014839227757088
 -0.0005289045407001  0.3108085812255301  0.2011672707170907
  0.9968760213561894  0.6991858712492856  0.1990036625795658
  0.9951777090288098  0.3111858661375473  0.7979349070552633
  0.2569189833100142  0.0016912182828641  0.2515281986830680
  0.7519571657527933  0.9993127861994908  0.7949451066155055
  0.7441638611810848  0.5003736456502693  0.2005536541446646
  0.2466157056103189  0.4986691876109202  0.7530532313653926
  0.4975584557554622  0.3184796616973549  0.6902173610338145
  0.4998624535271625  0.6870754719591050  0.3173836379093810
  0.5024506465315833  0.3187645151380618  0.3189931213332144
  0.4988071908895398  0.6866425540018953  0.6920018226421460
  0.0004279656862776  0.8212172153705303  0.6899182112060809
  0.0003966084106902  0.1888514640161385  0.3144048513506204
  0.9958305276764426  0.8213551985374308  0.3100378478043319
  0.9942312327302120  0.1894385870583445  0.6847007322242908
  0.2892372869194924  0.9897128660133528  0.1053407809436422
  0.7088732229163359  1.0032611187283844  0.9215215331014369
  0.7866803220095469  0.5064671932901291  0.0725139846960976
  0.2017363917714597  0.5129130253075573  0.8728817457730196
  0.2971508040788784  0.9919783389420002  0.4656839585836983
  0.7213500077859470  0.9924432759991357  0.5735893280864828
  0.7753960848249254  0.4912862850763782  0.4216744546485576
  0.2176593386006379  0.4807762623263680  0.5313278741604462
  0.1815282355679606  0.0122502595954925  0.1954239123332665
  0.8219573841318575  1.0001331046443340  0.8713547499045498
  0.6740879876920810  0.5015427671885769  0.1255145061045157
  0.3164810926292955  0.5082190036261135  0.8345248163009069
  0.2829122445679610  0.8697646447450627  0.5389784050365387
  0.7389089690882584  0.1079277709681004  0.4989642984634697
  0.7365339570978627  0.8651352826492744  0.5117438035270145
  0.2870171573240128  0.1121804896703995  0.5502421335656262
  0.7611433191195548  0.3635931947966531  0.4837413083792584
  0.2307776319494696  0.6001288759199795  0.4519670726179908
  0.2377736802176177  0.3568301127394742  0.4761643653631629
  0.7574609571560545  0.6063227417778586  0.4972412873690424
  0.1269985736763613  0.8077384487103459  0.6016522918487613
  0.8651621242310101  0.1863833555584815  0.3797764358110495
  0.8617163416609759  0.8077003842140327  0.4066506365608392
  0.1295754381229940  0.1619370579446189  0.6215989999261848
  0.6360501325836063  0.3091033867726622  0.6007669674686280
  0.3645245392878271  0.6655318266423493  0.3739248065111487
  0.3660419932683842  0.3082691662886143  0.3708752127836131
  0.6309681994251400  0.6898827097881505  0.6036728912200117
  0.1665934841461832  0.1611422456445437  0.6868660904090980
  0.8295410183742538  0.8436674821630853  0.3305636572478035
  0.8313526645417179  0.1558082432412061  0.3087038314211752
  0.1647470459932462  0.8269460996727868  0.6163985093060592
  0.6639943132766323  0.6563203119844095  0.6780113601926872
  0.3327587662049314  0.3261600433823901  0.2897040102384458
  0.3298291971374455  0.6475364202032975  0.2997373343350584
  0.6679530596834907  0.3454149709972348  0.6762251358417398
  0.1639941257184846  0.1571887069932478  0.1767915381677250
  0.8531810721086274  0.9967423926812002  0.7654091047515823
  0.8439654165914283  0.0028832825266870  1.0357485169042899
  0.1629497919220355  0.9468135434791530  0.3142765062927315
  0.6517220759588043  0.5070240476918756  0.9612920500923551
  0.3490904375460918  0.4991312206445849  0.7327829066332830
  0.3367178321208790  0.5250503944196688 -0.0015997698204504
  0.6432525897155364  0.4953562044025666  0.2323140204384964
  0.3526792458290203  0.9830358754397864  0.4793650868153757
  0.6649636426102261 -0.0014343593195244  0.5380415226332786
  0.8317069319243251  0.4962777156994254  0.4558096278675791
  0.1613076452344833  0.4711010127727110  0.4939115475549747
  0.3462639963313888  0.9915147132687336  0.1597564402553068
  0.6534456219710250  1.0020723554373927  0.8353732635505949
  0.8422521893224399  0.5054775853118691  0.1570551485631075
  0.1471913650355647  0.4916877260653129  0.7845340493039425
  0.4998454288462493  0.0028339779631853  0.0047779739293140
  0.9976887419221840  0.5050149672807394  0.9999097111693189
  0.4996709907567783  0.5027255150140746  0.5046002088813650
  0.9974619634645562  0.0051084646403817  0.4997967147045851
  0.2585882416656051  0.9764580036299064  0.9166335971572461
  0.7299241218432792  1.0076386091973559  0.1102660764531353
  0.7648995418028843  0.5126637020720706  0.8838272829076917
  0.2198760700117116  0.5454652244453395  0.0588401379045583
  0.1665371207847752  0.9101104123557140  0.9030986572540528
 
             NaN             NaN             NaN
             NaN             NaN             NaN
             NaN             NaN             NaN
             NaN             NaN             NaN
             NaN             NaN             NaN
             NaN             NaN             NaN
             NaN             NaN             NaN
             NaN             NaN             NaN
             NaN             NaN             NaN
             NaN             NaN             NaN
             NaN             NaN             NaN
             NaN             NaN             NaN
             NaN             NaN             NaN
             NaN             NaN             NaN
             NaN             NaN             NaN
             NaN             NaN             NaN
             NaN             NaN             NaN
             NaN             NaN             NaN
             NaN             NaN             NaN
             NaN             NaN             NaN
             NaN             NaN             NaN
             NaN             NaN             NaN
             NaN             NaN             NaN
             NaN             NaN             NaN
             NaN             NaN             NaN
             NaN             NaN             NaN
             NaN             NaN             NaN
             NaN             NaN             NaN
             NaN             NaN             NaN
             NaN             NaN             NaN
             NaN             NaN             NaN
             NaN             NaN             NaN
             NaN             NaN             NaN
             NaN             NaN             NaN
             NaN             NaN             NaN
             NaN             NaN             NaN
             NaN             NaN             NaN
             NaN             NaN             NaN
             NaN             NaN             NaN
             NaN             NaN             NaN
             NaN             NaN             NaN
             NaN             NaN             NaN
             NaN             NaN             NaN
             NaN             NaN             NaN
             NaN             NaN             NaN
             NaN             NaN             NaN
             NaN             NaN             NaN
             NaN             NaN             NaN
             NaN             NaN             NaN
             NaN             NaN             NaN
             NaN             NaN             NaN
             NaN             NaN             NaN
             NaN             NaN             NaN
             NaN             NaN             NaN
             NaN             NaN             NaN
             NaN             NaN             NaN
             NaN             NaN             NaN
             NaN             NaN             NaN
             NaN             NaN             NaN
             NaN             NaN             NaN
             NaN             NaN             NaN
             NaN             NaN             NaN
             NaN             NaN             NaN
             NaN             NaN             NaN
             NaN             NaN             NaN
             NaN             NaN             NaN
             NaN             NaN             NaN
             NaN             NaN             NaN
             NaN             NaN             NaN
             NaN             NaN             NaN
             NaN             NaN             NaN
             NaN             NaN             NaN
             NaN             NaN             NaN
             NaN             NaN             NaN
             NaN             NaN             NaN
             NaN             NaN             NaN
             NaN             NaN             NaN
             NaN             NaN             NaN
             NaN             NaN             NaN
             NaN             NaN             NaN
             NaN             NaN             NaN
