H    Li   C    N    O    Cd   Ni        
   1.00000000000000     
     7.0738821381989716   -0.9360230334988985    0.7003262786590247
    -0.1974635161312541    7.3905220770706235    0.0159115806419178
     0.2727640914055915   -0.0092526394839193    6.9914369261456750
   H    Li   C    N    O    Cd   Ni
    14     1    10     6     2     1     1
Selective dynamics
Direct
  0.5596855395537123  0.9423354137463940  0.7015334296110718   T   T   T
  0.2191494354292032  0.0025148544968255  0.2807079927397022   T   T   T
  0.3868501756095841  0.2133936954361642  0.2541831834168023   T   T   T
  0.2104575316131886  0.1715460891096086  0.4721947565786609   T   T   T
  0.6500504228362706  0.0095258518681673  0.2124841799593749   T   T   T
  0.4846622600422760  0.7970874158350563  0.2632695623508048   T   T   T
  0.6723837019958375  0.8645063485493746  0.4164218284136134   T   T   T
  0.3582453260394127  0.5189828266493451  0.4712860052751284   T   T   T
  0.5411111816848448  0.3755311776010721  0.9581791995840184   T   T   T
  0.6400627442745499  0.6282503543499796  0.9473490892675830   T   T   T
  0.7417318595059684  0.4680307227304100  0.7774423555560626   T   T   T
  0.3189643348121652  0.7138433659572911  0.9078674577635142   T   T   T
  0.2287599068158644  0.4675856086146173  0.9484685439273397   T   T   T
  0.1862940923029520  0.5866081756381717  0.7322810905100510   T   T   T
  0.7451488900314913  0.4761440224940480  0.1427394622188637   T   T   T
  0.9731506289967570  0.8415809922920178  0.0749899075855315   T   T   T
  0.9482409428388671  0.1944288029519065  0.7373821687362245   T   T   T
  0.9581055205276606  0.8560171564596024  0.7230251816909221   T   T   T
  0.9644313953924073  0.1908557852839500  0.0880574248892443   T   T   T
  0.4490199203232145  0.0250416641499165  0.6596156483380838   T   T   T
  0.3064168165314611  0.1067252798022430  0.3631175684200356   T   T   T
  0.5679739809512282  0.9163562984949094  0.3329270179729052   T   T   T
  0.4857183210816109  0.5091015257613770  0.5365681269873619   T   T   T
  0.6087293425599964  0.4988740480284121  0.8618037540198126   T   T   T
  0.2900406528448477  0.5772437534749639  0.8357251155085296   T   T   T
  0.9563881811182690  0.7159147106313802  0.1855383709980578   T   T   T
  0.9392678576072964  0.3146997159889429  0.6282137099514510   T   T   T
  0.9459081881777542  0.7344608205829171  0.6120379657706375   T   T   T
  0.9488960328398689  0.3087266266808216  0.2024392187312384   T   T   T
  0.4394767835977173  0.0163159396641953  0.4609832408455415   T   T   T
  0.4707430475207640  0.5302509028177955  0.7301018137741307   T   T   T
  0.3549926254096359  0.1103697869074114  0.7817793787803845   T   T   T
  0.6186119491770282  0.4767507877106681  0.4204062659327663   T   T   T
  0.9546533172667072  0.5204663863725267  0.4188681451130672   T   T   T
  0.9730070926896150  0.0229770928675298  0.9065768387814839   T   T   T
 
  0.00000000E+00  0.00000000E+00  0.00000000E+00
  0.00000000E+00  0.00000000E+00  0.00000000E+00
  0.00000000E+00  0.00000000E+00  0.00000000E+00
  0.00000000E+00  0.00000000E+00  0.00000000E+00
  0.00000000E+00  0.00000000E+00  0.00000000E+00
  0.00000000E+00  0.00000000E+00  0.00000000E+00
  0.00000000E+00  0.00000000E+00  0.00000000E+00
  0.00000000E+00  0.00000000E+00  0.00000000E+00
  0.00000000E+00  0.00000000E+00  0.00000000E+00
  0.00000000E+00  0.00000000E+00  0.00000000E+00
  0.00000000E+00  0.00000000E+00  0.00000000E+00
  0.00000000E+00  0.00000000E+00  0.00000000E+00
  0.00000000E+00  0.00000000E+00  0.00000000E+00
  0.00000000E+00  0.00000000E+00  0.00000000E+00
  0.00000000E+00  0.00000000E+00  0.00000000E+00
  0.00000000E+00  0.00000000E+00  0.00000000E+00
  0.00000000E+00  0.00000000E+00  0.00000000E+00
  0.00000000E+00  0.00000000E+00  0.00000000E+00
  0.00000000E+00  0.00000000E+00  0.00000000E+00
  0.00000000E+00  0.00000000E+00  0.00000000E+00
  0.00000000E+00  0.00000000E+00  0.00000000E+00
  0.00000000E+00  0.00000000E+00  0.00000000E+00
  0.00000000E+00  0.00000000E+00  0.00000000E+00
  0.00000000E+00  0.00000000E+00  0.00000000E+00
  0.00000000E+00  0.00000000E+00  0.00000000E+00
  0.00000000E+00  0.00000000E+00  0.00000000E+00
  0.00000000E+00  0.00000000E+00  0.00000000E+00
  0.00000000E+00  0.00000000E+00  0.00000000E+00
  0.00000000E+00  0.00000000E+00  0.00000000E+00
  0.00000000E+00  0.00000000E+00  0.00000000E+00
  0.00000000E+00  0.00000000E+00  0.00000000E+00
  0.00000000E+00  0.00000000E+00  0.00000000E+00
  0.00000000E+00  0.00000000E+00  0.00000000E+00
  0.00000000E+00  0.00000000E+00  0.00000000E+00
  0.00000000E+00  0.00000000E+00  0.00000000E+00
