N    C    H    Ge   Cu   O    Li        
   1.00000000000000     
    15.6602482116925525    0.0896602637766858    0.0088065402920707
     0.2382495532058247    7.4466627673943639   -0.0739556732102572
    -2.3238988166097827    0.0805851197625035    6.9093069378349021
   N    C    H    Ge   Cu   O    Li
    12    20    40     2     2     4     1
Direct
  0.4751246080887918  0.2151968219240658  0.7833485198003829
  0.5536740690962568  0.7972755093197414  0.2602402864001132
  0.5298710595441825  0.2154038953326068  0.2141293963282141
  0.4501690266475811  0.8031635439728715  0.7442767031473515
  0.9639496842501242  0.7241211319279059  0.7797732315086946
  0.0371111428416807  0.2762249470306578  0.2446589805694785
  0.0444217695773368  0.7182368160468154  0.2053896412366387
  0.9658522032717008  0.2848655157808484  0.7428383090434105
  0.2776838181642496  0.9963897262486082  0.2165294483245472
  0.7296696329229816  0.0025356347843805  0.7945454356975629
  0.7696238394535495  0.4965112708118868  0.2048217719320304
  0.2290785228155692  0.5007207620122522  0.7952377618196452
  0.4995834566560103  0.3210451532785440  0.6921086483037363
  0.5419315652812717  0.6804579144829054  0.3583909637331376
  0.5019821683751141  0.3224685049193676  0.3041443179734450
  0.4599694767287712  0.6847319281618141  0.6421331569146114
  0.9537339398872571  0.8093520587909980  0.6360803585087785
  0.0026561446861355  0.1740297709598261  0.3214166347242682
  0.0420024559514775  0.8071947285267368  0.3396190670805498
  1.0081343950962347  0.1560719378725934  0.7175957780796469
  0.3543662082991991  1.0077174513818479  0.1755363409887376
  0.6513160514170090  0.9942060151271498  0.8274088406541414
  0.8477182518765675  0.5073118341396022  0.1704234386319043
  0.1503406604808193  0.4989941595587219  0.8280435244180253
  0.2724484870139277  0.0011327834604477  0.4125250815179708
  0.7359157891744512  0.0035506877957543  0.5991595510427837
  0.7638857853094434  0.4961072839632492  0.4003556416441704
  0.2361096211522126  0.4991499476734311  0.6007519315514277
  0.1945666585276844  0.9775248614325301  0.0724665043767406
  0.8117508625249149  0.0050349011917979  0.9470062225088796
  0.6873197608341198  0.4957179033034114  0.0528674339368923
  0.3110614162959853  0.5027293066460837  0.9483344343422837
  0.2382179149586525  0.8817480080091298  0.4366530371561496
  0.7734436545200885  0.1201816524742962  0.5816262616717885
  0.7726250017745256  0.8812868325538860  0.5773240855826042
  0.2320155168570864  0.1206123576799461  0.4266907585308902
  0.7261644089737922  0.3800850524332794  0.4186838864600366
  0.2718196680382875  0.6176380801997639  0.5801644736001759
  0.2752492127588649  0.3786932228236199  0.5835840883339221
  0.7275738281842153  0.6189889304219729  0.4222012259613567
  0.1562956929080288  0.8332907806831036  0.6485626300056675
  0.8425436989174364  0.1687287908708122  0.3608814348524627
  0.8354978607469824  0.8306659727739676  0.3471077684459379
  0.1620448660856899  0.1774514612881942  0.6324156201485380
  0.6581961986503007  0.3295155581757063  0.6385839174568839
  0.3413509917187852  0.6683619414289275  0.3518638008613625
  0.3439623215350767  0.3307801324611591  0.3608487888115798
  0.6589759023656434  0.6714713911506466  0.6445202061570281
  0.1961111574238744  0.1435137950492610  0.7233383616237256
  0.7947349851547869  0.8484170792250438  0.2606766893444813
  0.8011598770732351  0.1455234570664743  0.2801432318601804
  0.1887978557909174  0.8548572662547834  0.7464330074950932
  0.6981231001469557  0.6502437325267921  0.7330693118903181
  0.3001329005154867  0.3533370750987201  0.2845033132704705
  0.3036065514883895  0.6472855236385123  0.2620049503227259
  0.6978488705853421  0.3555686639297483  0.7219358681196654
  0.1582166695792686  0.1017110612793822  0.0099084264642700
  0.8421013658043386  0.8767583285814000  1.0082108772458933
  0.8479980819010778  0.1292380488933242  0.9702687206453864
  0.1613193177889273  0.8555057746354016  0.0941930050388241
  0.6558695798628701  0.6249806454068596 -0.0027390493304823
  0.3439461399592915  0.3739999658457639  1.0017278950397739
  0.3468268721508705  0.6275684536953762  0.9731509800752716
  0.6501106250779348  0.3726825029620346  0.0305753444972586
  0.3398922086144055  0.0046042682250994  0.5185514894315567
  0.6683719599629592  0.0084479821317179  0.4924842848189094
  0.8316258109127750  0.4890014493809389  0.5063381741658814
  0.1688775639267114  0.4982693077198954  0.4930031377883968
  0.4142805402053023  0.0138479321544294  0.3032075608672779
  0.5928111144906449  0.9896204888226793  0.6967516664272744
  0.9065376404688475  0.5080890451872169  0.3010723979080949
  0.0918047491928792  0.4965845874364814  0.6971139209887235
  0.5035643874239675  0.9954182872814334  1.0010008831103319
  0.9990904940003354  0.4887497568714924  1.0003493590601846
  0.5004564287584082  0.5002313623299094  0.4988110323247644
  0.9978417712541757 -0.0188754401321933  0.4920108123211050
  0.3578770998262534  1.0080415826288511  1.0045704018880353
  0.6441328190520684  0.9931196810524799 -0.0036710853922689
  0.8539739740361977  0.5140658278697994  1.0015222241349371
  0.1431919805496821  0.5019933025732461 -0.0034805133064644
  0.0408122106401321  0.9357101056291225  0.9167685000095301
 
             NaN             NaN             NaN
             NaN             NaN             NaN
             NaN             NaN             NaN
             NaN             NaN             NaN
             NaN             NaN             NaN
             NaN             NaN             NaN
             NaN             NaN             NaN
             NaN             NaN             NaN
             NaN             NaN             NaN
             NaN             NaN             NaN
             NaN             NaN             NaN
             NaN             NaN             NaN
             NaN             NaN             NaN
             NaN             NaN             NaN
             NaN             NaN             NaN
             NaN             NaN             NaN
             NaN             NaN             NaN
             NaN             NaN             NaN
             NaN             NaN             NaN
             NaN             NaN             NaN
             NaN             NaN             NaN
             NaN             NaN             NaN
             NaN             NaN             NaN
             NaN             NaN             NaN
             NaN             NaN             NaN
             NaN             NaN             NaN
             NaN             NaN             NaN
             NaN             NaN             NaN
             NaN             NaN             NaN
             NaN             NaN             NaN
             NaN             NaN             NaN
             NaN             NaN             NaN
             NaN             NaN             NaN
             NaN             NaN             NaN
             NaN             NaN             NaN
             NaN             NaN             NaN
             NaN             NaN             NaN
             NaN             NaN             NaN
             NaN             NaN             NaN
             NaN             NaN             NaN
             NaN             NaN             NaN
             NaN             NaN             NaN
             NaN             NaN             NaN
             NaN             NaN             NaN
             NaN             NaN             NaN
             NaN             NaN             NaN
             NaN             NaN             NaN
             NaN             NaN             NaN
             NaN             NaN             NaN
             NaN             NaN             NaN
             NaN             NaN             NaN
             NaN             NaN             NaN
             NaN             NaN             NaN
             NaN             NaN             NaN
             NaN             NaN             NaN
             NaN             NaN             NaN
             NaN             NaN             NaN
             NaN             NaN             NaN
             NaN             NaN             NaN
             NaN             NaN             NaN
             NaN             NaN             NaN
             NaN             NaN             NaN
             NaN             NaN             NaN
             NaN             NaN             NaN
             NaN             NaN             NaN
             NaN             NaN             NaN
             NaN             NaN             NaN
             NaN             NaN             NaN
             NaN             NaN             NaN
             NaN             NaN             NaN
             NaN             NaN             NaN
             NaN             NaN             NaN
             NaN             NaN             NaN
             NaN             NaN             NaN
             NaN             NaN             NaN
             NaN             NaN             NaN
             NaN             NaN             NaN
             NaN             NaN             NaN
             NaN             NaN             NaN
             NaN             NaN             NaN
             NaN             NaN             NaN
