H    Li   C    N    O    Pt   Ni        
   1.00000000000000     
     7.4514369896290615   -0.9250865034790957    0.2628458942035448
    -0.1975668902967833    7.3657247215060053    0.0395714041402519
    -0.0818091775456905   -0.0039317915646737    6.6050335121601780
   H    Li   C    N    O    Pt   Ni
    14     1    10     6     2     1     1
Selective dynamics
Direct
  0.6800764543911175  0.9150130300772198  0.6006680124833954   T   T   T
  0.2141684577297654  0.0112157395944096  0.3614953411074823   T   T   T
  0.3302665096946797  0.2358872343301345  0.4055321745047595   T   T   T
  0.2548688696924610  0.0872115726419938  0.6162131910604394   T   T   T
  0.5895166431795893  0.1440575384865324  0.1871724229189970   T   T   T
  0.4826277255076359  0.9176031853290137  0.1597649550362999   T   T   T
  0.6991834525490339  0.9660695277586914  0.2823091316850402   T   T   T
  0.2415413603166156  0.6361944227804167  0.6055028121295588   T   T   T
  0.5630293425528541  0.3069294131521959  0.8525157228857928   T   T   T
  0.6992031664757158  0.5302419853700616  0.8492279471843932   T   T   T
  0.6417653093904785  0.4155923788520615  0.6192563793862900   T   T   T
  0.4260546419620355  0.6845324058294484  0.0224300325194206   T   T   T
  0.3400210589766599  0.4435941334149134  0.0572754736547392   T   T   T
  0.2110830799862710  0.5938405136663121  0.9334927967183412   T   T   T
  0.6322942722116017  0.6125678363458869  0.2527980020670239   T   T   T
  0.9142959610063869  0.8080190161453862  0.0474005563779127   T   T   T
  0.9389977784653727  0.1789517877921998  0.6811945317185516   T   T   T
  0.9749392939577276  0.8174969880288292  0.6731059845493157   T   T   T
  0.9932117915094786  0.1811680022859856  0.0536357061591520   T   T   T
  0.5546026667619954 -0.0269060981506728  0.6317205770879361   T   T   T
  0.3096756968715022  0.0933854828843084  0.4613647618370023   T   T   T
  0.5662356591522072  0.0090274431733916  0.2634114287048513   T   T   T
  0.3658475600642462  0.5759304568321625  0.5877908631688085   T   T   T
  0.5926024234491647  0.4394680458154530  0.7722392115238628   T   T   T
  0.3475445370643663  0.5629318204721991  0.9545599497811160   T   T   T
  0.8990211593662881  0.6768692517705407  0.1551019947085801   T   T   T
  0.9407117929747880  0.3038595163667526  0.5696911696098698   T   T   T
 -0.0360380399642847  0.6933166292106460  0.5600980089430075   T   T   T
 -0.0181702537705507  0.3053585703170182  0.1617245100267381   T   T   T
  0.4782776495084391  0.0198198419845459  0.4597747924848617   T   T   T
  0.4310609679741723  0.5247199170450321  0.7615743948369773   T   T   T
  0.4978366769105271 -0.0078921718841767  0.8079471413413319   T   T   T
  0.4334272680261249  0.5575304635969749  0.4135249886556790   T   T   T
  0.9458787873988567  0.4941582458802448  0.3595199794111610   T   T   T
  0.9616702786567066 -0.0047201271960936  0.8655300537313111   T   T   T
 
  0.00000000E+00  0.00000000E+00  0.00000000E+00
  0.00000000E+00  0.00000000E+00  0.00000000E+00
  0.00000000E+00  0.00000000E+00  0.00000000E+00
  0.00000000E+00  0.00000000E+00  0.00000000E+00
  0.00000000E+00  0.00000000E+00  0.00000000E+00
  0.00000000E+00  0.00000000E+00  0.00000000E+00
  0.00000000E+00  0.00000000E+00  0.00000000E+00
  0.00000000E+00  0.00000000E+00  0.00000000E+00
  0.00000000E+00  0.00000000E+00  0.00000000E+00
  0.00000000E+00  0.00000000E+00  0.00000000E+00
  0.00000000E+00  0.00000000E+00  0.00000000E+00
  0.00000000E+00  0.00000000E+00  0.00000000E+00
  0.00000000E+00  0.00000000E+00  0.00000000E+00
  0.00000000E+00  0.00000000E+00  0.00000000E+00
  0.00000000E+00  0.00000000E+00  0.00000000E+00
  0.00000000E+00  0.00000000E+00  0.00000000E+00
  0.00000000E+00  0.00000000E+00  0.00000000E+00
  0.00000000E+00  0.00000000E+00  0.00000000E+00
  0.00000000E+00  0.00000000E+00  0.00000000E+00
  0.00000000E+00  0.00000000E+00  0.00000000E+00
  0.00000000E+00  0.00000000E+00  0.00000000E+00
  0.00000000E+00  0.00000000E+00  0.00000000E+00
  0.00000000E+00  0.00000000E+00  0.00000000E+00
  0.00000000E+00  0.00000000E+00  0.00000000E+00
  0.00000000E+00  0.00000000E+00  0.00000000E+00
  0.00000000E+00  0.00000000E+00  0.00000000E+00
  0.00000000E+00  0.00000000E+00  0.00000000E+00
  0.00000000E+00  0.00000000E+00  0.00000000E+00
  0.00000000E+00  0.00000000E+00  0.00000000E+00
  0.00000000E+00  0.00000000E+00  0.00000000E+00
  0.00000000E+00  0.00000000E+00  0.00000000E+00
  0.00000000E+00  0.00000000E+00  0.00000000E+00
  0.00000000E+00  0.00000000E+00  0.00000000E+00
  0.00000000E+00  0.00000000E+00  0.00000000E+00
  0.00000000E+00  0.00000000E+00  0.00000000E+00
