H    Li   C    N    O    Ge  Cu         
   1.00000000000000     
     6.6108104041819216   -1.0905919930195072    0.4627637040545157
    -0.4088781879503893    6.9582996603673255    0.0103413189952677
     0.0662094480631135   -0.0123118140035399    6.5063578756847482
   H    Li   C    N    O    Ge   Cu
    14     1    10     6     2     1     1
Selective dynamics
Direct
  0.5613788093113223  0.9530295202311145  0.7091470458976452   T   T   T
  0.2090236921115330  0.0097284147206225  0.2638181974830794   T   T   T
  0.3636829420345865  0.2486073995150675  0.2662042562361283   T   T   T
  0.1827626397287880  0.1674200235842964  0.4827782130490508   T   T   T
  0.5957193282387876  0.0567219424424793  0.1829281062527295   T   T   T
  0.5102961178392322  0.8104637329792631  0.2903992342496206   T   T   T
  0.7137406898906102  0.9906948518350529  0.4043581412674711   T   T   T
  0.3436133123034745  0.5352605172592468  0.4730673473685366   T   T   T
  0.5462788799780072  0.3573854845604859  0.9806152635605649   T   T   T
  0.6626647127265745  0.6139787503324853  0.9650406597754541   T   T   T
  0.7456448872709377  0.4448316049361732  0.7848885996391948   T   T   T
  0.3343264363143051  0.6994682139122788  0.9319645091401816   T   T   T
  0.2395132631988351  0.4339726588295440  0.9624324294800151   T   T   T
  0.1876069047905472  0.5698677557707172  0.7369742336912503   T   T   T
  0.7594427974140106  0.7561011688870427  0.3583741176484677   T   T   T
  0.9789043715327937  0.8084505112081293  0.0618094042332519   T   T   T
  0.9389841625509107  0.1733449753363950  0.7164841030538008   T   T   T
  0.9710134614355815  0.8222547553650208  0.6934567566176887   T   T   T
  0.9623466786427729  0.1759686297783690  0.0761712638929693   T   T   T
  0.4416476085765805  0.0301359899213072  0.6724119473019780   T   T   T
  0.2836494351804464  0.1242635019611989  0.3633975034822667   T   T   T
  0.5713472377779653  0.9644675908215595  0.3278986046155869   T   T   T
  0.4824586824902660  0.5087973278344827  0.5400924691915339   T   T   T
  0.6248729568958253  0.4784697504103088  0.8807021431991205   T   T   T
  0.2918270367642000  0.5601840838636403  0.8484943935706505   T   T   T
  0.9877993117164772  0.6741180457508269  0.1763699934876090   T   T   T
  0.9097739280419407  0.3013027788656087  0.5981629627144561   T   T   T
  0.9414621936243271  0.6830916840785618  0.5895518792283265   T   T   T
  0.9196751703719516  0.3082088111487407  0.1862161213610416   T   T   T
  0.4322319931683590  0.0368993236594570  0.4637961315416179   T   T   T
  0.4718907800692269  0.5199871433675703  0.7430622543541796   T   T   T
  0.3337883906750685  0.0973297911257512  0.8060758262111239   T   T   T
  0.6343266193000093  0.5001351482764087  0.4103189513309294   T   T   T
  0.9782613157675233  0.4890056695340401  0.3915892730514950   T   T   T
  0.9725292522662358  0.0030668478967398  0.8913150628209762   T   T   T
 
  0.00000000E+00  0.00000000E+00  0.00000000E+00
  0.00000000E+00  0.00000000E+00  0.00000000E+00
  0.00000000E+00  0.00000000E+00  0.00000000E+00
  0.00000000E+00  0.00000000E+00  0.00000000E+00
  0.00000000E+00  0.00000000E+00  0.00000000E+00
  0.00000000E+00  0.00000000E+00  0.00000000E+00
  0.00000000E+00  0.00000000E+00  0.00000000E+00
  0.00000000E+00  0.00000000E+00  0.00000000E+00
  0.00000000E+00  0.00000000E+00  0.00000000E+00
  0.00000000E+00  0.00000000E+00  0.00000000E+00
  0.00000000E+00  0.00000000E+00  0.00000000E+00
  0.00000000E+00  0.00000000E+00  0.00000000E+00
  0.00000000E+00  0.00000000E+00  0.00000000E+00
  0.00000000E+00  0.00000000E+00  0.00000000E+00
  0.00000000E+00  0.00000000E+00  0.00000000E+00
  0.00000000E+00  0.00000000E+00  0.00000000E+00
  0.00000000E+00  0.00000000E+00  0.00000000E+00
  0.00000000E+00  0.00000000E+00  0.00000000E+00
  0.00000000E+00  0.00000000E+00  0.00000000E+00
  0.00000000E+00  0.00000000E+00  0.00000000E+00
  0.00000000E+00  0.00000000E+00  0.00000000E+00
  0.00000000E+00  0.00000000E+00  0.00000000E+00
  0.00000000E+00  0.00000000E+00  0.00000000E+00
  0.00000000E+00  0.00000000E+00  0.00000000E+00
  0.00000000E+00  0.00000000E+00  0.00000000E+00
  0.00000000E+00  0.00000000E+00  0.00000000E+00
  0.00000000E+00  0.00000000E+00  0.00000000E+00
  0.00000000E+00  0.00000000E+00  0.00000000E+00
  0.00000000E+00  0.00000000E+00  0.00000000E+00
  0.00000000E+00  0.00000000E+00  0.00000000E+00
  0.00000000E+00  0.00000000E+00  0.00000000E+00
  0.00000000E+00  0.00000000E+00  0.00000000E+00
  0.00000000E+00  0.00000000E+00  0.00000000E+00
  0.00000000E+00  0.00000000E+00  0.00000000E+00
  0.00000000E+00  0.00000000E+00  0.00000000E+00
