N    C    H    Pt   Ni   O    Li
   1.00000000000000     
  18.5299946181028012   0.0429142364924856   0.4919204219109380
   0.0211206697702205   7.3045027115450800   0.0117288164420684
  -2.1368031388741699   0.0037754967589326   6.5026509031874102
N    C    H    Pt   Ni   O    Li
12  20  40  2  2  4  1  
Direct
  0.4929803120127688  0.1934219562054829  0.8021271949627586  
  0.4988523398863206  0.8052135062146843  0.2059481706174172  
  0.5021840903350424  0.1934261521046639  0.2082745643593774  
  0.4971735332374428  0.8050243351941334  0.8055485365524899  
  0.0091915825530948  0.6949827837505933  0.8297865072460886  
  0.0048204418222769  0.3044924028684388  0.2234350549035507  
  0.0013136456970191  0.6934442986372765  0.2219808049931947  
  0.9942401332503412  0.3055291751261748  0.8163066794775155  
  0.2492086666828592  0.0085105343875995  0.2183883091067270  
  0.7540040424392074  0.9921132846503340  0.8007679193838126  
  0.7451686869062817  0.5030102005325182  0.2038293033354652  
  0.2487130199469930  0.5121871947522866  0.7739767025604997  
  0.4921122404037307  0.3146017502898966  0.6886327271422870  
  0.4980040559490101  0.6836785343159553  0.3176070096722421  
  0.5030582931611604  0.3146855716801970  0.3213441161165235  
  0.4985252682942517  0.6834837256506427  0.6945221136633729  
  0.0110570382407313  0.8174085261478689  0.7181795590268437  
  0.0065105233836417  0.1834496973717900  0.3381575124144385  
  0.9991774083623460  0.8152946275852622  0.3330282245415357  
  0.9921010257592432  0.1839716821364501  0.7021639637956932  
  0.2908065145647560  0.9968273933109310  0.0830543288688828  
  0.7055291756643262  0.9859239192485461  0.9218827154143796  
  0.7931955688766494  0.5105966030439504  0.0816810173860196  
  0.1890860831988304  0.5359506122435332  0.8511715378354887  
  0.2871679992686852  0.9902671436961969  0.4355454407903143  
  0.7226997934982521  0.9997045782086400  0.5790604803250374  
  0.7770267961256192  0.4971984361012233  0.4252705836109817  
  0.2329972664094839  0.4657369162379978  0.5581522662719667  
  0.1706768896929065  0.0263088836905189  0.1540970988382357  
  0.8298029602308785  0.9898018892675120  0.8831563985895926  
  0.6692258086458206  0.5010130049650225  0.1230221617366766  
  0.3212699635980147  0.5425763522418465  0.8841573066879321  
  0.2761491884855904  0.8566122306220343  0.4938666630982023  
  0.7444060843877717  0.1189136559301711  0.5177888890104442  
  0.7383394965290435  0.8772143929822439  0.5086793616841581  
  0.2667665961093965  0.0940099324122659  0.5221999415558500  
  0.7566829044816753  0.3767923229989055  0.4881070776910044  
  0.2414995182793586  0.5859281564815012  0.4714821746276821  
  0.2714487597492400  0.3570179111543014  0.5408798344994658  
  0.7604586598351437  0.6187845673229895  0.4954328259191951  
  0.1471981782857694  0.8068785292627602  0.5334052946053202  
  0.8617483105012556  0.1877319233806148  0.3724413826440707  
  0.8655616508093800  0.8163144979393622  0.4277809008096293  
  0.1311943733462529  0.1755611191803287  0.6311572619288264  
  0.6354060944111183  0.3094480514533129  0.6265729133890501  
  0.3651283010771718  0.6595064656182651  0.3850634164918039  
  0.3597024008736915  0.3300218703027359  0.3426921737579661  
  0.6347323576147254  0.6867665809258602  0.5854742089036034  
  0.1678422308004663  0.1486845410167602  0.7084029295322464  
  0.8313359966335095  0.8462189523911621  0.3447368151626542  
  0.8262028591158418  0.1546584038785397  0.2972173953345698  
  0.1744028745362821  0.8465830225841920  0.6267711086025217  
  0.6675917310021592  0.6515642960831181  0.6694660019892946  
  0.3246651195307099  0.3175052924646841  0.2559992061719728  
  0.3256755525242914  0.6585531474726960  0.3152394346553686  
  0.6708615886623085  0.3438372276811512  0.7012493316668815  
  0.1468423593001896  0.0815020514966451  0.2701783077063995  
  0.8521004020630329  0.9801155098246470  0.0474723131829699  
  0.8650752117630628  0.9977010268521980  0.7817929486185837  
  0.1489939356859407  0.0825804237254452  0.0004951519111261  
  0.6463961921216405  0.5083646658217188  0.9587656409628570  
  0.3652418053621951  0.5190997861978115  0.8115128500672543  
  0.3324412987476296  0.5871152807018963  0.0404860752732094  
  0.6344425795022930  0.4943862191261607  0.2257265776605934  
  0.3480784187299896  0.0048193608681734  0.4630168267687167  
  0.6613261843828525  0.0092823434065669  0.5392734903011170  
  0.8385067146451446  0.4908607536103570  0.4642172718872535  
  0.1748673920689823  0.4189210858066200  0.4983831487024700  
  0.3518619387522027  0.9810562199504050  0.1581802230275163  
  0.6456663987276374  0.9882989743624200  0.8316306836052555  
  0.8530754720554889  0.5122893523243955  0.1711365355842721  
  0.1345040741207767  0.5031808304477560  0.7423121715915607  
  0.4978792114235145  0.9994233850644160  0.0054455428176490  
  0.0016607329276759  0.4983493920775742  0.0218373920785167  
  0.4981794053550765  0.4990407119718765  0.5057548809923833  
  0.0021229668781992  0.9993947074695350  0.5230314326391435  
  0.2637812462427144  0.0034503329692559  0.8944744415139877  
  0.7267764529821273  0.9789464134198440  0.1101217912518439  
  0.7714872004818384  0.5149660451130936  0.8931731559907513  
  0.1952680935658215  0.5915651238687990  0.0287691428930803  
  0.1215623688250549  0.7538171156619119  0.0679691466012388  
