N    C    H    Cu   O    Li
   1.00000000000000     
  16.9093125498526007  -0.1520560954820130   0.1081210683627890
  -0.0489526911730263   7.6594955928086703   0.6734652487964490
  -2.0480926649626099   0.6241751032074440   7.0522956951409999
N    C    H    Cu   O    Li
12  20  40  4  4  1  
Direct
  0.5022316484480872  0.1817086971097905  0.8196165962956866  
  0.5069363704956393  0.8100303091651081  0.1798075392196823  
  0.5548404525465154  0.1981601884275836  0.2514322414483540  
  0.4674428069208356  0.7452237999815163  0.7032555429240840  
  0.9927817533055616  0.6734079264038904  0.8113064077228983  
  0.0082005992679809  0.3244735921620855  0.1563989166234651  
  0.0409528500676929  0.7321226345924091  0.2723490104523976  
  0.9355963070285842  0.2772955803304686  0.7061555189878604  
  0.2575865493300505  0.0350822238625654  0.2239634313564941  
  0.7415611177443370  0.9574834981342740  0.8236007692633284  
  0.7557402610952931  0.5265833751484672  0.1473339180131341  
  0.2511623854114461  0.5141510684611211  0.8364746818989963  
  0.4929821246278042  0.2802328574948328  0.6743895424260148  
  0.4971195206787680  0.6713534887074403  0.2651697396722056  
  0.5464584128758254  0.3039122752234146  0.3434839902741221  
  0.4865350499706302  0.6394549593952078  0.6238798778836352  
  0.0048834191701252  0.8078897876768724  0.7198343258901648  
  0.0148851260036325  0.2153504307460259  0.2940268753473093  
  0.0135059143724040  0.8343106947760164  0.3427032397065071  
  0.9420539546738556  0.1748047691340194  0.6084876702067142  
  0.3151929014525240  0.0674287385218932  0.1162669528896380  
  0.6688309333197623  0.9567636360668750  0.8797796086637450  
  0.8293852251999738  0.5127909399205437  0.1013198170634554  
  0.1813337778379655  0.5023507804591262  0.8996467074423981  
  0.2865522868226925  0.0082202832663387  0.4334305628800674  
  0.7360740292845209  0.9748488621404120  0.6193856787436142  
  0.7580757702000317  0.5273310207197310  0.3474309218845876  
  0.2467046284841897  0.4666155205538593  0.6497443663222039  
  0.1778514470142643  0.0222021935754875  0.1367702714468770  
  0.8157125861667712  0.9556549058916890  0.9493579901864528  
  0.6820990295973022  0.5265875196233761  0.0185932554213340  
  0.3228441679543271  0.5727674110978724  0.9363031743302896  
  0.2641909866026185  0.8833408219392630  0.4933737627396163  
  0.7660692274556028  0.0956017237676252  0.5752610939694616  
  0.7675518868154704  0.8612967537473207  0.5949398347507022  
  0.2632461411794398  0.1158157983629912  0.4866023633225590  
  0.7253250197987021  0.4132154065899358  0.3979231638850979  
  0.2778324805189020  0.5657195287281611  0.5715610869291984  
  0.2772885426764435  0.3371258787145712  0.6711255726637850  
  0.7276077825657077  0.6488206043537413  0.3568754528765398  
  0.1652453969791675  0.8408822231492253  0.6971198167334515  
  0.8056826226414524  0.1748845358400220  0.2893960993841492  
  0.8692091430883189  0.8283601829548267  0.4087361947410555  
  0.1149234236361759  0.1863042556111116  0.6419709773924525  
  0.6832954283206217  0.3077696867762083  0.6819291827744011  
  0.3388053572506457  0.7001446189346835  0.3465680747331665  
  0.3544058198143727  0.3423804130040625  0.3906682609578784  
  0.6332217357080722  0.6675866688912396  0.5634790513161878  
  0.1573461186869877  0.1613190515370248  0.7067754669909005  
  0.8242510898348696  0.8540956146720002  0.3765951589852413  
  0.7643816135871214  0.1536444661455266  0.2285581555287904  
  0.2057887476686349  0.8722940781082968  0.7508628630643832  
  0.6773618538027882  0.6369131824979880  0.6045321354500285  
  0.3174307172396378  0.3782747314504311  0.3104486338576646  
  0.2958666968436182  0.6866316855358338  0.2886825977496784  
  0.7255640344124018  0.3266137008336930  0.7397094873555473  
  0.1348614396900733  0.9933539391427650  0.2228094482145140  
  0.8698467575475497  0.9628862968737908  0.8962942730243748  
  0.8188269686083339  0.9486660597169450  0.0991106754345171  
  0.1587530068899909  0.0397060341543844  0.9815586257808040  
  0.6270969769189076  0.5334049125618153  0.0661424626867511  
  0.3742178036022836  0.5872042083986427  0.8734531894117801  
  0.3258798911386399  0.6090455153281460  0.0733587878907330  
  0.6804058693506586  0.5178588051715326  0.8728023150954330  
  0.3539004743387221  0.0025117332388429  0.4806596516930537  
  0.6715208945954062  0.9823490349760550  0.5357555146882098  
  0.8219377883100203  0.5186540979557573  0.4357859627516994  
  0.1822575322214168  0.4626273175443020  0.5683264838517051  
  0.3790943379564227  0.0692739927153407  0.2061245248245615  
  0.6127903701965448  0.9564298395075570  0.7604620391658152  
  0.8841716170075025  0.5129445517684437  0.2229302770465539  
  0.1274622301487006  0.4593191868232116  0.7972737128584138  
  0.5295892910021003  0.0371254745801773  0.0653683665657002  
  0.9508653429832830  0.4370511024190172  0.8830192740068560  
  0.5052731391548346  0.4700631730654989  0.4723264993665207  
  0.9931020292544024  0.0106311103941207  0.4909457396108668  
  0.2950006516498053  0.0893408696158062  0.9408007879879520  
  0.6682604656754728  0.9596467532763430  0.0465214648289127  
  0.8327519166976343  0.4975416121829579  0.9376487813977308  
  0.1788587979349963  0.5402791918468252  0.0567494250664199  
  0.0742891885014488  0.5782955303559729  0.1147080878708463  
