N    C    H    Pb   Pd   O    Li        
   1.00000000000000     
    15.2582296484177533    0.2683211510258260   -1.5210969182602900
     0.6264048399990966    7.4596613486993677    0.0559967902500092
    -2.4460009750810974    0.1443246056635094    7.3244838762793583
   N    C    H    Pb   Pd   O    Li
    12    20    40     2     2     4     1
Direct
  0.4632198957802762  0.2253267005472504  0.7648475046655965
  0.5417779958028873  0.7764206640649275  0.2366069262753366
  0.5381371778313205  0.2105922411284951  0.2324871444025396
  0.4663159325841266  0.7899246831306609  0.7693167984207279
  0.9427056028781878  0.7280390447604226  0.7695509624741642
  0.0666007100351914  0.2505470131918236  0.3062443236753680
  0.0505065977845761  0.7168499830202290  0.2186014546211569
  0.9344152523325653  0.2774007452913970  0.7048615774173513
  0.2735318211699095  0.0214571272561149  0.1968018625257789
  0.7325601153748820  0.0006263428186559  0.8109392734965116
  0.7589386544589535  0.5014419530437642  0.2159562257748892
  0.2422451135937502  0.5039980968982227  0.7867712202011768
  0.4814148100641791  0.3209978963562546  0.6658403754901291
  0.5232559683903989  0.6811500950970141  0.3355288807406712
  0.5225119258584734  0.3135943071813871  0.3345617433777221
  0.4822523614504867  0.6874655151537261  0.6672867775668363
  0.9596477161670207  0.7976696276303317  0.6510909305851479
  0.0301686994923566  0.1434161199929560  0.3574597822019317
  0.0249763215792137  0.7854331329369693  0.3298368516902356
  0.9577018775870013  0.1588706553013390  0.6279434141241896
  0.3537061501004219  0.0165065712037023  0.1668226811565584
  0.6520836973301449  0.9880210596925192  0.8373438099033658
  0.8413287282824041  0.5029889734395144  0.1966864639002819
  0.1582523272547948  0.5262044630891827  0.8013629112090693
  0.2783684901921159  0.0083710241652655  0.3905752133183628
  0.7292385332084003  0.0021505013265068  0.6179201258732325
  0.7569568152803444  0.5077237889795517  0.4034122216499332
  0.2458056598611841  0.4852687386445201  0.6012338232291233
  0.1814053905393921  0.0403967348761614  0.0439624095408134
  0.8230949264845087  0.0025357914918239  0.9621139367433601
  0.6708043037608629  0.4958848880962964  0.0575747043857301
  0.3302917688741620  0.5121496661884336  0.9458932525141309
  0.2458232781655811  0.8891546382458285  0.4083015644542345
  0.7643606689301395  0.1159947549648382  0.5973016129990419
  0.7676335232372987  0.8768290983051432  0.5999309712675399
  0.2387668163128706  0.1281731604474247  0.4162981624261777
  0.7246283580875474  0.3911629481106457  0.4273807727843740
  0.2801362471168390  0.5973282780952069  0.5736100494594079
  0.2879225948439211  0.3586868254583508  0.6003577744474720
  0.7138161714234581  0.6309380186104339  0.4102951145186191
  0.1781180703242918  0.8392309014886681  0.6446730946076999
  0.8103149057075595  0.1668885349960875  0.3260073499389723
  0.8187982473895802  0.8236634017871313  0.3479407564636243
  0.1716130284732420  0.1821618402308975  0.6531585646795475
  0.6785668183137377  0.3455764142109984  0.6818252975680871
  0.3262067379835561  0.6641922633111093  0.3245694885046118
  0.3266531469845885  0.3402132374779356  0.3341279617135530
  0.6750479824266179  0.6746826780565830  0.6677288840739850
  0.2157139298383519  0.1538614631738600  0.7419029426835689
  0.7738018020232637  0.8523943425026389  0.2608666678826771
  0.7686804923268000  0.1400263335355237  0.2402879473356702
  0.2236155709494482  0.8639621402599327  0.7227279527934257
  0.7204345015215488  0.6491537857856337  0.7547176294674031
  0.2800612146903476  0.3632836504776105  0.2492123484921870
  0.2806778367971145  0.6537140847332646  0.2387197894373882
  0.7246662824577634  0.3573062280250746  0.7660810344975906
  0.1533718819413739  0.1657617470105436  0.9558723189556978
  0.8551572771781152  0.8834554490266556  0.0573003651941085
  0.8615824692067120  0.1200106484377707 -0.0299433465388901
  0.1497303607240494  0.9152807795196267 -0.0077333856492893
  0.6366342231746484  0.6185603967934228  0.9718616235052968
  0.3720189284467650  0.3863451093533168  0.0149135956725566
  0.3577683592966652  0.6418633283427581  0.9826219582779773
  0.6364013685298783  0.3727706068351614  0.0365493106183492
  0.3537334234098604 -0.0034067426705479  0.4925386745778705
  0.6544164313094214  0.0144776912858779  0.5135430274226291
  0.8303407984363531  0.5049840869849067  0.5117548269520034
  0.1725669373226731  0.4877728148895786  0.4913827525659102
  0.4208802604211686  0.0049174796012182  0.2956841339222239
  0.5864450132121043  0.9865990098980635  0.7068557871766067
  0.9058255517316108  0.5053126532476105  0.3293700517024858
  0.0950682975068655  0.5139305633136271  0.6690259626182942
  0.5017885288566831  0.9999157784540301  0.0005236239818980
 -0.0054952808491161  0.4350906077719522  0.0052583626628386
  0.5024889006841542  0.5010340693512115  0.5006375197430210
  0.9902074291192651  0.9632743831572987  0.4881115878956459
  0.3528626411489648  0.0235782647784329  0.9969034162059374
  0.6509334270925470  0.9829810032942117  0.0052230132154708
  0.8456631715579133  0.5005152679282505  0.0350547223909390
  0.1500703523912083  0.5598903355650359  0.9567286049237924
  0.0703932293216175  0.7505181200160900  0.9892952936776729
 
             NaN             NaN             NaN
             NaN             NaN             NaN
             NaN             NaN             NaN
             NaN             NaN             NaN
             NaN             NaN             NaN
             NaN             NaN             NaN
             NaN             NaN             NaN
             NaN             NaN             NaN
             NaN             NaN             NaN
             NaN             NaN             NaN
             NaN             NaN             NaN
             NaN             NaN             NaN
             NaN             NaN             NaN
             NaN             NaN             NaN
             NaN             NaN             NaN
             NaN             NaN             NaN
             NaN             NaN             NaN
             NaN             NaN             NaN
             NaN             NaN             NaN
             NaN             NaN             NaN
             NaN             NaN             NaN
             NaN             NaN             NaN
             NaN             NaN             NaN
             NaN             NaN             NaN
             NaN             NaN             NaN
             NaN             NaN             NaN
             NaN             NaN             NaN
             NaN             NaN             NaN
             NaN             NaN             NaN
             NaN             NaN             NaN
             NaN             NaN             NaN
             NaN             NaN             NaN
             NaN             NaN             NaN
             NaN             NaN             NaN
             NaN             NaN             NaN
             NaN             NaN             NaN
             NaN             NaN             NaN
             NaN             NaN             NaN
             NaN             NaN             NaN
             NaN             NaN             NaN
             NaN             NaN             NaN
             NaN             NaN             NaN
             NaN             NaN             NaN
             NaN             NaN             NaN
             NaN             NaN             NaN
             NaN             NaN             NaN
             NaN             NaN             NaN
             NaN             NaN             NaN
             NaN             NaN             NaN
             NaN             NaN             NaN
             NaN             NaN             NaN
             NaN             NaN             NaN
             NaN             NaN             NaN
             NaN             NaN             NaN
             NaN             NaN             NaN
             NaN             NaN             NaN
             NaN             NaN             NaN
             NaN             NaN             NaN
             NaN             NaN             NaN
             NaN             NaN             NaN
             NaN             NaN             NaN
             NaN             NaN             NaN
             NaN             NaN             NaN
             NaN             NaN             NaN
             NaN             NaN             NaN
             NaN             NaN             NaN
             NaN             NaN             NaN
             NaN             NaN             NaN
             NaN             NaN             NaN
             NaN             NaN             NaN
             NaN             NaN             NaN
             NaN             NaN             NaN
             NaN             NaN             NaN
             NaN             NaN             NaN
             NaN             NaN             NaN
             NaN             NaN             NaN
             NaN             NaN             NaN
             NaN             NaN             NaN
             NaN             NaN             NaN
             NaN             NaN             NaN
             NaN             NaN             NaN
