N    C    H    Co   Ni   O    Li        
   1.00000000000000     
    19.5051312458857495   -0.9377718025649741    0.5369498975649279
    -0.5444934076398226    6.8424626440115439   -0.0619951740431888
    -1.2326780917224394   -0.0282923607250947    6.8234918998080625
   N    C    H    Co   Ni   O    Li
    12    20    40     2     2     4     1
Direct
  0.5070912480170299  0.1955549733403233  0.8118038902290954
  0.4948158007453446  0.8074038662700723  0.1879630615730128
  0.5008860735660632  0.1934672608187137  0.1906082799214265
  0.5010782996745291  0.8094756461134890  0.8091806374572837
  0.9981496991740046  0.7636980363265884  0.8207297796400999
  0.9894738063435469  0.3794959030472748  0.1948849252718262
  0.9946420399006403  0.7614820792411506  0.1964195460628392
  0.9917153456578348  0.3806437220193077  0.8153046496956364
  0.2671126549663658  0.9479611522105444  0.0029415222061362
  0.7362278937557852  0.0204701947386616  0.0036106365588110
  0.7426928989046822  0.5203077748368936  0.0041692214940517
  0.2637266405989400  0.4439283863227032  0.9953862044520333
  0.5059910361973127  0.3144049505683018  0.6903171014469123
  0.4958463870786494  0.6883294132009531  0.3092602584394812
  0.5004300049485261  0.3124498964564522  0.3112877274572536
  0.5014137382688960  0.6903647594050012  0.6885043369909400
  0.9990887122095391  0.8829502849110517  0.6988703347232192
  0.9908695608135868  0.2593468827801736  0.3176351199393880
  0.9955664384176974  0.8805788832873390  0.3190909236580056
  0.9931408827606876  0.2606731916395043  0.6941543272557195
  0.3386877941668713  0.9683562211607545  0.0480784145099169
  0.6648924176151650  0.0144719186021318  0.9561959637933490
  0.8145501256686575  0.5335773235353009  0.0456613484939010
  0.1940397360430143  0.3928150484878257  0.9349866686688065
  0.2245292649750596  0.9243622916012120  0.1604139060835044
  0.7793114507025746  0.0252498412353647  0.8471954156855893
  0.7013617686617390  0.5135426334835457  0.1642549888104868
  0.3101437798409103  0.4796201926325596  0.8477716368111616
  0.2337116901255882  0.9488347662505149  0.8152668771437722
  0.7685177979546627  0.0251202081804041  0.1923157062584530
  0.7092556339178423  0.5128135021077312  0.8166028253051359
  0.2922031036145543  0.4530472738602138  0.1874687151091916
  0.1874395448345405  0.7894892416728662  0.1352251204974931
  0.8155103267587374  0.1621423307298783  0.8577231025849972
  0.8091242518762389  0.8995351594129980  0.8581896309523841
  0.1956218895978439  0.0507949595089344  0.1657028769885781
  0.6656364362340484  0.3759847805081921  0.1563208978178753
  0.3431728976865723  0.6208063905981790  0.8768811620995518
  0.3431917772155033  0.3615602301104940  0.8498205875376813
  0.6709621439367983  0.6379105928701773  0.1560129311925589
  0.1309114412222313  0.6472943644146674  0.4377132535936856
  0.8433395130791270  0.3568530227165007  0.5715051009577683
  0.8455827154139530  0.7210037781903911  0.5772965400810584
  0.1395446841881548  0.2258566641784912  0.4650954712051477
  0.6426183196814446  0.1783561963711726  0.4410424971879159
  0.3578756737219368  0.7998189487653128  0.5633591477572386
  0.3569976250511067  0.1621265066656692  0.5634222567491478
  0.6431191802924277  0.8137683154904676  0.4440747451803972
  0.1766891328253282  0.2059077470217587  0.4917421988109282
  0.8306041522707480  0.7710265082698406  0.4870525419532247
  0.8285126214964921  0.3002981682764423  0.4786633802496920
  0.1607663955904919  0.6792914142884513  0.5174340033157181
  0.6652168896608863  0.7681577764385948  0.5256078247572937
  0.3382377249170503  0.2024661503060523  0.4724051440238873
  0.3389948325653087  0.7409514248855532  0.4756471985447739
  0.6624632284591649  0.2317954517259075  0.5308793648099968
  0.2654609123109392  0.9690719182115347  0.6996957721608789
  0.7362558954358212  0.0217212634150722  0.3067080054237431
  0.8248944751148851  0.0307266805722380  0.2190800784574717
  0.1771148776653155  0.9305478459905756  0.7906519139724051
  0.6527189190500960  0.5004738466246990  0.7914799005399028
  0.3483729214372573  0.4875583412775125  0.2241398141693101
  0.2569287379557441  0.4268839674410880  0.2940406933316971
  0.7412648017229625  0.5175804413368646  0.7014031874553143
  0.2586758225578752  0.9145874394221208  0.2994130315481112
  0.7453277263395119  0.0181788199917418  0.7061521021579956
  0.7368092309015007  0.5218580896024442  0.3030016978375119
  0.2782996767762724  0.4826642421728037  0.7040097167345168
  0.3582230728315991  0.9671245242408106  0.2053401030424999
  0.6460740315821062  0.0087248541912975  0.7982664178579754
  0.8346562474625879  0.5387817611360215  0.2033073310047154
  0.1778887128730883  0.4000323816005700  0.7766833173111879
  0.5008835008489385  0.0014996681790194  0.9998497271130221
  0.9898499554906758  0.5706191696086512  0.0051868190887348
  0.5009566024569636  0.5014037208831702  0.4998735734111396
  0.9953933675160972  0.0714867792039831  0.5075776076741330
  0.3778944873972167  0.9858631852497132  0.9202050102481166
  0.6253413725391336  0.0156394448353943  0.0818386252212979
  0.8526694068134220  0.5388302456950531  0.9169283780751266
  0.1518131917425563  0.3429641129063052  0.0522480093034839
  0.0583819622257085  0.2634242918393886  0.0366627910037946
 
             NaN             NaN             NaN
             NaN             NaN             NaN
             NaN             NaN             NaN
             NaN             NaN             NaN
             NaN             NaN             NaN
             NaN             NaN             NaN
             NaN             NaN             NaN
             NaN             NaN             NaN
             NaN             NaN             NaN
             NaN             NaN             NaN
             NaN             NaN             NaN
             NaN             NaN             NaN
             NaN             NaN             NaN
             NaN             NaN             NaN
             NaN             NaN             NaN
             NaN             NaN             NaN
             NaN             NaN             NaN
             NaN             NaN             NaN
             NaN             NaN             NaN
             NaN             NaN             NaN
             NaN             NaN             NaN
             NaN             NaN             NaN
             NaN             NaN             NaN
             NaN             NaN             NaN
             NaN             NaN             NaN
             NaN             NaN             NaN
             NaN             NaN             NaN
             NaN             NaN             NaN
             NaN             NaN             NaN
             NaN             NaN             NaN
             NaN             NaN             NaN
             NaN             NaN             NaN
             NaN             NaN             NaN
             NaN             NaN             NaN
             NaN             NaN             NaN
             NaN             NaN             NaN
             NaN             NaN             NaN
             NaN             NaN             NaN
             NaN             NaN             NaN
             NaN             NaN             NaN
             NaN             NaN             NaN
             NaN             NaN             NaN
             NaN             NaN             NaN
             NaN             NaN             NaN
             NaN             NaN             NaN
             NaN             NaN             NaN
             NaN             NaN             NaN
             NaN             NaN             NaN
             NaN             NaN             NaN
             NaN             NaN             NaN
             NaN             NaN             NaN
             NaN             NaN             NaN
             NaN             NaN             NaN
             NaN             NaN             NaN
             NaN             NaN             NaN
             NaN             NaN             NaN
             NaN             NaN             NaN
             NaN             NaN             NaN
             NaN             NaN             NaN
             NaN             NaN             NaN
             NaN             NaN             NaN
             NaN             NaN             NaN
             NaN             NaN             NaN
             NaN             NaN             NaN
             NaN             NaN             NaN
             NaN             NaN             NaN
             NaN             NaN             NaN
             NaN             NaN             NaN
             NaN             NaN             NaN
             NaN             NaN             NaN
             NaN             NaN             NaN
             NaN             NaN             NaN
             NaN             NaN             NaN
             NaN             NaN             NaN
             NaN             NaN             NaN
             NaN             NaN             NaN
             NaN             NaN             NaN
             NaN             NaN             NaN
             NaN             NaN             NaN
             NaN             NaN             NaN
             NaN             NaN             NaN
