N    C    H    Co   Ni   O    Li        
   1.00000000000000     
    19.2588603514424150   -0.5985518879955820    0.4496383011207630
    -0.5187622267857250    6.8186305672683716   -0.0416917025895827
    -1.2319845576500434   -0.0435022659863665    6.8506922204726290
   N    C    H    Co   Ni   O    Li
    12    20    40     2     2     4     1
Direct
  0.5062795625914742  0.1967446692789332  0.8124467504928237
  0.4948607685481879  0.8091152861843778  0.1883637039934592
  0.5004485169441795  0.1953388955702185  0.1905845774413097
  0.5006830277424845  0.8102995123692287  0.8102852460491479
  0.0027169379966794  0.7114617594595667  0.8218520511331943
  0.9886230494941752  0.3240132806145657  0.1929598972205173
  0.9977890138955563  0.7084906228920610  0.1960524573808903
  0.9922644043554182  0.3259433204667019  0.8135630554605044
  0.2629975251305777  0.9783930855755758  0.0024481317023664
  0.7401543530947112  0.0096338825261202  0.0016686883155500
  0.7496693734712601  0.5105879350937794  0.0038854172339066
  0.2517350094715653  0.4713658265323062  0.0004327146151869
  0.5054032437139995  0.3152549951287042  0.6906259448572899
  0.4960421556480976  0.6907677288503412  0.3103924648403453
  0.5001586467373794  0.3137677444210897  0.3119103218270577
  0.5012274661205179  0.6918281477786448  0.6891660422564430
  0.0035793067960613  0.8296049996038937  0.6989652122003992
  0.9908612325510653  0.2047379634728463  0.3164928519853909
  0.9987395169448890  0.8268706628799272  0.3192610168348108
  0.9946125089486463  0.2067486578077329  0.6924237151584416
  0.3353655168461678  0.9882507649574479  0.0471286630781289
  0.6679023204920169  0.0084890788368845  0.9548521962101115
  0.8220459181736913  0.5150911277968534  0.0478343328511762
  0.1807948747177198  0.4251559617290652  0.9473902508144341
  0.2203445281617364  0.9636296098393989  0.1595353409170240
  0.7837417856357993  0.0142270422036204  0.8465059685517603
  0.7069263250294486  0.5053103920558087  0.1608213533881037
  0.2959545409456759  0.4982871030486605  0.8466321173614054
  0.2289297581686022  0.9814624727524837  0.8153720226522058
  0.7728683780975651  0.0092830022386165  0.1897620873527412
  0.7165564879562657  0.5093008819541057  0.8163224657458429
  0.2844969986413087  0.4760985640662423  0.1884070373238886
  0.1824502877827646  0.8309639942308090  0.1382412824204595
  0.8209282152022859  0.1483284723506849  0.8603248659456050
  0.8133741382702725  0.8853502350499125  0.8546562862030541
  0.1919938548292016  0.0942808328089223  0.1620552790595666
  0.6704401978963497  0.3700194215555473  0.1495123596108797
  0.3306372814923940  0.6363591724945195  0.8695740949609960
  0.3282567642917708  0.3753589471184994  0.8481385895441615
  0.6764403638046865  0.6323871033617919  0.1522140110979993
  0.1471406493969192  0.6655212861089935  0.4378722611760055
  0.8470907142271170  0.3298810193024640  0.5677317251441000
  0.8491976248469916  0.6983997895797006  0.5743244179562912
  0.1560674081706481  0.2947841116187350  0.4325324411922455
  0.6462517690049483  0.1872808988685495  0.4405281568773965
  0.3539109731134258  0.8074381448118009  0.5636697011741529
  0.3547660828092914  0.1776850114077724  0.5643831158591438
  0.6459555433004608  0.8154422864162939  0.4414318606499643
  0.1699865342377017  0.2395574785788849  0.5211649638694539
  0.8322125814114270  0.7485728927434293  0.4859068732552796
  0.8286096064048399  0.2765952669362160  0.4766638595687781
  0.1700954469323142  0.7151434628615340  0.5250454370934609
  0.6691555228593182  0.7707419779580377  0.5227671493442092
  0.3339382141208513  0.2214090826459105  0.4776820888198641
  0.3329451453336374  0.7525145878548807  0.4765222300846703
  0.6682889762494300  0.2386776097829978  0.5281326387767266
  0.2607874800396833  0.9946438483237093  0.6998513044815166
  0.7401842456084472  0.0056658667440307  0.3033402567767047
  0.8299145757115911  0.0117915656349670  0.2164948419350471
  0.1716592449837324  0.9671026249052102  0.7909517642617795
  0.6594694544232002  0.5045046544394216  0.7896743266769519
  0.3416768902551959  0.5002966587233251  0.2156505063682985
  0.2517790449335773  0.4565901081122657  0.3016644285470454
  0.7493754471265908  0.5127802145829398  0.7029392552293159
  0.2549163557048904  0.9548264007668267  0.2985605906472653
  0.7494671574069710  0.0133764793504365  0.7058566940076628
  0.7420314940575978  0.5092263369014173  0.3003875459060734
  0.2618286072977359  0.5004179886518881  0.7059572031190949
  0.3552472298102362  0.9871820527617704  0.2039530104716205
  0.6485528288196724  0.0070657089299480  0.7975309228928787
  0.8421749971684074  0.5160180577705996  0.2049297542195680
  0.1615611175849870  0.4432929141303346  0.7921738973895404
  0.5001726387722164  0.0028268563455450  0.0001844656719815
  0.9912738453650608  0.5174994259887666  0.0043107975651054
  0.5007790763833493  0.5029177872898375  0.5005655602223306
  0.9978193702588408  0.0174693581790321  0.5069854875447408
  0.3748373800182149  0.9966454223120759  0.9198428444640856
  0.6282205530969639  0.0096223064527646  0.0804014157656031
  0.8609622028595896  0.5170987934718475  0.9203326793893030
  0.1398927393637087  0.3690641084250212  0.0675407080664445
  0.0559784235619055  0.1961743797815311  0.0356352074224041
 
             NaN             NaN             NaN
             NaN             NaN             NaN
             NaN             NaN             NaN
             NaN             NaN             NaN
             NaN             NaN             NaN
             NaN             NaN             NaN
             NaN             NaN             NaN
             NaN             NaN             NaN
             NaN             NaN             NaN
             NaN             NaN             NaN
             NaN             NaN             NaN
             NaN             NaN             NaN
             NaN             NaN             NaN
             NaN             NaN             NaN
             NaN             NaN             NaN
             NaN             NaN             NaN
             NaN             NaN             NaN
             NaN             NaN             NaN
             NaN             NaN             NaN
             NaN             NaN             NaN
             NaN             NaN             NaN
             NaN             NaN             NaN
             NaN             NaN             NaN
             NaN             NaN             NaN
             NaN             NaN             NaN
             NaN             NaN             NaN
             NaN             NaN             NaN
             NaN             NaN             NaN
             NaN             NaN             NaN
             NaN             NaN             NaN
             NaN             NaN             NaN
             NaN             NaN             NaN
             NaN             NaN             NaN
             NaN             NaN             NaN
             NaN             NaN             NaN
             NaN             NaN             NaN
             NaN             NaN             NaN
             NaN             NaN             NaN
             NaN             NaN             NaN
             NaN             NaN             NaN
             NaN             NaN             NaN
             NaN             NaN             NaN
             NaN             NaN             NaN
             NaN             NaN             NaN
             NaN             NaN             NaN
             NaN             NaN             NaN
             NaN             NaN             NaN
             NaN             NaN             NaN
             NaN             NaN             NaN
             NaN             NaN             NaN
             NaN             NaN             NaN
             NaN             NaN             NaN
             NaN             NaN             NaN
             NaN             NaN             NaN
             NaN             NaN             NaN
             NaN             NaN             NaN
             NaN             NaN             NaN
             NaN             NaN             NaN
             NaN             NaN             NaN
             NaN             NaN             NaN
             NaN             NaN             NaN
             NaN             NaN             NaN
             NaN             NaN             NaN
             NaN             NaN             NaN
             NaN             NaN             NaN
             NaN             NaN             NaN
             NaN             NaN             NaN
             NaN             NaN             NaN
             NaN             NaN             NaN
             NaN             NaN             NaN
             NaN             NaN             NaN
             NaN             NaN             NaN
             NaN             NaN             NaN
             NaN             NaN             NaN
             NaN             NaN             NaN
             NaN             NaN             NaN
             NaN             NaN             NaN
             NaN             NaN             NaN
             NaN             NaN             NaN
             NaN             NaN             NaN
             NaN             NaN             NaN
