N    C    H    Pt   Pb   O    Li        
   1.00000000000000     
    15.6798540234460795    0.2578748926029520   -0.9074668085494310
     0.5165289412100592    7.5191590189857296    0.0237076317432194
    -2.1417264233654039    0.1442231438177576    7.1007376947450886
   N    C    H    Pt   Pb   O    Li
    12    20    40     2     2     4     1
Direct
  0.4621121084948347  0.1961014475455845  0.7975681714240168
  0.5466212601075003  0.8118405511789999  0.2145414233581375
  0.5410073907726088  0.1820869566563346  0.2023120094571089
  0.4674143158310171  0.8128677973246390  0.8039963207327099
  0.9605708311455501  0.6881331783050342  0.7915594343024415
  0.0466144100961759  0.3035011915820346  0.2048646309945841
  0.0301827701942336  0.6760023459093644  0.2060051002810378
  0.9826765960582884  0.2988756705369667  0.8105240581883717
  0.2818482135413913  0.0095771039768121  0.2142667566769770
  0.7255232426851459  0.0000557891683082  0.8027182609203437
  0.7764068493462988  0.4966942341239965  0.1970820474203645
  0.2238051278909882  0.5023687799452775  0.8052481468675566
  0.4676063652766735  0.3072738962637385  0.6910898904344711
  0.5666752768765294  0.7203289798914525  0.3555406069534573
  0.5717844344217458  0.2737615298813217  0.3342721464179139
  0.4576820865690513  0.7070034554471155  0.6836236613224845
  0.9484986012188901  0.7766135918495575  0.6497007826208300
  0.0746069190261222  0.1891224031107662  0.3265724483505326
  0.0496728698578828  0.7619913046288374  0.3461291693368747
  0.0016325741601094  0.1696206601999248  0.7351984603273622
  0.3612715005594199  0.0110611223236694  0.1860080727598002
  0.6452243169260785  0.9969554075777143  0.8242196591021399
  0.8570838135894508  0.4940814049981399  0.1748744845322985
  0.1430670417493526  0.5020177534418991  0.8250543368195240
  0.2778464619399929  0.0070528297276435  0.4097940591559489
  0.7318132279538083 -0.0028637417979232  0.6099345715472874
  0.7711350548367115  0.5026716840028667  0.3923084724825014
  0.2311837211504792  0.4927925454271903  0.6129629267279840
  0.1977273300663391  1.0005689689133896  0.0653631718459411
  0.8097884686570422 -0.0000783492038344  0.9552123024241089
  0.6917476352066699  0.5000874983262860  0.0435220183080213
  0.3078463063277765  0.5034930737177236  0.9586142870195019
  0.2437547852540713  0.8891396691315548  0.4285348188159484
  0.7650498516145210  0.1152827937176270  0.5887282202227464
  0.7713109157748037  0.8718514462275744  0.5971395433070179
  0.2367469069466880  0.1285476704087621  0.4258583360326164
  0.7345999447233609  0.3904471260477329  0.4146377060573678
  0.2649533535255680  0.6090350453761374  0.5891097928041330
  0.2715721095304718  0.3669053194044815  0.6060595704045740
  0.7328320032100452  0.6289725514012575  0.4060745478130296
  0.1700190633585855  0.8362637528620223  0.6380202046321832
  0.7972560658731961  0.1817299735493579  0.3271905818722158
  0.8166054391597767  0.8186875439100176  0.3445111037759774
  0.1659596840201795  0.1722925174721801  0.6439662246849587
  0.6732106077132868  0.3347446287332665  0.6458515256860233
  0.3086043492793515  0.6850103116178679  0.3422046369989504
  0.3189414760438292  0.3264323360407809  0.3543746288110622
  0.6730830491867549  0.6737890455055702  0.6484768028362080
  0.2040122505358940  0.1537114636258415  0.7385299576994914
  0.7800274510075763  0.8588378522990641  0.2545759707521174
  0.7643142369435814  0.1366306499846091  0.2447598501468425
  0.2064819540487993  0.8642898730893885  0.7275179700503668
  0.7101316253363203  0.6468145979348553  0.7425505668983827
  0.2838071593175142  0.3612323200254985  0.2604338096799488
  0.2793433373468986  0.6451796076768895  0.2505167065847277
  0.7063946158563005  0.3610274209964655  0.7401957797036518
  0.1605955176255060  0.1226369776888032  0.9800290062999660
  0.8493453074218948  0.8692738875627951  1.0049226084092078
  0.8426515411601267  0.1264286711741401  0.9751291705382036
  0.1654133234151634  0.8795076503396050  0.0866953733046803
  0.6512800953792379  0.6298050813095211 -0.0012390551142725
  0.3484605812348384  0.3733994070217334  1.0035951800432483
  0.3401377112390722  0.6303794914498499  0.9812219842307072
  0.6591230306669038  0.3741602235783070  0.0119119038371335
  0.3461952250298296  1.0004511223519679  0.5179629343277919
  0.6639057236277861  0.0029574572911464  0.5001121922552140
  0.8393309588377952  0.4935693553607606  0.5024894554292952
  0.1636536789565136  0.4958246440479915  0.5017650341549095
  0.4210084020486470  0.0082133631428282  0.3181924222398161
  0.5873037381383427  0.9977598191936037  0.6896885419319101
  0.9149145549382860  0.4971038442870868  0.3090459766986423
  0.0859282126038473  0.4935228454330269  0.6908691382570397
  0.5018378573071826 -0.0002353335232678  0.0029275109451363
  1.0007074294127163  0.4955693105442449  1.0007606240936897
  0.4645566221835152  0.5052757653397116  0.4154638958129779
  0.9577939679162601  0.0198207829528477  0.4127012423871652
  0.3665860207793797  0.0106918864566491  0.0166823731047370
  0.6371041310879019  0.9922247640795017 -0.0091366246253909
  0.8664639439552728  0.4927611169985945  0.0062909457140256
  0.1337283790390041  0.5119880708695543  0.9936248737608588
  0.0552144864267602  0.9017355814368411  0.8735694615725172
 
             NaN             NaN             NaN
             NaN             NaN             NaN
             NaN             NaN             NaN
             NaN             NaN             NaN
             NaN             NaN             NaN
             NaN             NaN             NaN
             NaN             NaN             NaN
             NaN             NaN             NaN
             NaN             NaN             NaN
             NaN             NaN             NaN
             NaN             NaN             NaN
             NaN             NaN             NaN
             NaN             NaN             NaN
             NaN             NaN             NaN
             NaN             NaN             NaN
             NaN             NaN             NaN
             NaN             NaN             NaN
             NaN             NaN             NaN
             NaN             NaN             NaN
             NaN             NaN             NaN
             NaN             NaN             NaN
             NaN             NaN             NaN
             NaN             NaN             NaN
             NaN             NaN             NaN
             NaN             NaN             NaN
             NaN             NaN             NaN
             NaN             NaN             NaN
             NaN             NaN             NaN
             NaN             NaN             NaN
             NaN             NaN             NaN
             NaN             NaN             NaN
             NaN             NaN             NaN
             NaN             NaN             NaN
             NaN             NaN             NaN
             NaN             NaN             NaN
             NaN             NaN             NaN
             NaN             NaN             NaN
             NaN             NaN             NaN
             NaN             NaN             NaN
             NaN             NaN             NaN
             NaN             NaN             NaN
             NaN             NaN             NaN
             NaN             NaN             NaN
             NaN             NaN             NaN
             NaN             NaN             NaN
             NaN             NaN             NaN
             NaN             NaN             NaN
             NaN             NaN             NaN
             NaN             NaN             NaN
             NaN             NaN             NaN
             NaN             NaN             NaN
             NaN             NaN             NaN
             NaN             NaN             NaN
             NaN             NaN             NaN
             NaN             NaN             NaN
             NaN             NaN             NaN
             NaN             NaN             NaN
             NaN             NaN             NaN
             NaN             NaN             NaN
             NaN             NaN             NaN
             NaN             NaN             NaN
             NaN             NaN             NaN
             NaN             NaN             NaN
             NaN             NaN             NaN
             NaN             NaN             NaN
             NaN             NaN             NaN
             NaN             NaN             NaN
             NaN             NaN             NaN
             NaN             NaN             NaN
             NaN             NaN             NaN
             NaN             NaN             NaN
             NaN             NaN             NaN
             NaN             NaN             NaN
             NaN             NaN             NaN
             NaN             NaN             NaN
             NaN             NaN             NaN
             NaN             NaN             NaN
             NaN             NaN             NaN
             NaN             NaN             NaN
             NaN             NaN             NaN
             NaN             NaN             NaN
