N    C    H    Ni   O    Li             
   1.00000000000000     
    18.0906320268565608   -0.0072629241154439    1.6780122447521699
     0.1156576978630514    7.4461290993987213    0.6038734741880910
    -1.6340908211462004    0.7581388053256432    7.3724648179988685
   N    C    H    Ni   O    Li
    12    20    40     4     4     1
Direct
  0.4916639462223395  0.1793101116094274  0.8104709468793718
  0.5090321849471844  0.7793159565295092  0.1880156987723387
  0.5159744803767355  0.1836598418522103  0.2192907388235588
  0.4529030957364131  0.7261922933714656  0.6887829380341884
  0.9855252773183256  0.6866154439704170  0.7386013058361944
  0.9754622652788180  0.3051950167618384  0.1093054328778637
  0.0320615799284039  0.7846650621606843  0.1957972076850541
  0.9786851086111499  0.2859650909384867  0.7151360575795507
  0.2974887318529624  0.9960940593709552  0.2529942260061717
  0.7324423842511447  0.0184088355062536  0.9363338608815720
  0.7438480489581346  0.5379382724172546  0.0138211911778970
  0.2578777811486249  0.4821438579281807  0.8671554301533559
  0.4930386423869688  0.2772323250162636  0.6723254958870080
  0.5050567484024721  0.6450286630873695  0.2918649006845851
  0.5119988467417628  0.2842607913819340  0.3207830454504513
  0.4731573603948805  0.6186334252083473  0.6071181591648583
  0.9914436211121460  0.8210611603384450  0.6341795085839996
  0.9845615244204364  0.2063720273512002  0.2501112764362546
  0.0153489232420689  0.8730176307620913  0.2992619010361059
  0.9825347701960379  0.1852194184642473  0.6131309429191749
  0.3686500229988356  0.9894243862339381  0.2126730526992658
  0.6564270526968398  0.0147761052592781  0.9121931508905181
  0.8198505951155445  0.5346495757034534  0.0370558888031453
  0.1826737437757462  0.5119671199709197  0.8584453971677679
  0.2866016224873927  0.9523372022940957  0.4436369911267953
  0.7728926179560547  0.0335736500866431  0.7792578700039066
  0.7044399034581980  0.5117273983824917  0.1732818298255673
  0.2872807640231930  0.3956715528435579  0.7296610926797503
  0.2372780171022745  0.0502384950288155  0.1275032462509255
  0.7715862419002266  0.0080671115097922  0.1032951627435142
  0.7032888952530302  0.5639581324049818  0.8475968490950656
  0.3070119535285912  0.5312562361269754  0.9983878446802583
  0.2411358828825227  0.8592605441838289  0.4580236241960610
  0.8050189066207509  0.1567559090827744  0.7686802539356441
  0.8107317432847804  0.9139109399085454  0.7927187041836525
  0.2721447926161168  0.0774062223727360  0.4909732955321509
  0.6725663999891828  0.3883063923918856  0.1777715351378251
  0.3254472315695848  0.4867545698563024  0.6610288354597624
  0.3179212828320507  0.2677146082833098  0.7937263122020805
  0.6663440319808125  0.6292772924604595  0.1676264050698802
  0.2298129257454414  0.8838943531025178  0.7766402398516471
  0.8440087802126844  0.1955421113362893  0.4425753577732550
  0.8340237411612210  0.6840244832034534  0.5318180899767193
  0.1254166076951448  0.1767850178340339  0.5283650379882409
  0.6403151995699938  0.3578431452247732  0.5207005647773433
  0.2313049962147724  0.5884069195789248  0.3725592521599760
  0.3640850181988067  0.3353296946137594  0.4109542701732696
  0.6387045638703651  0.8838272451187381  0.4158251894360862
  0.1609349417630762  0.1396288961856994  0.5862731058977266
  0.8090628366308865  0.7260185181993423  0.4474760372556776
  0.8037527452713266  0.2017279507825329  0.4035382719005198
  0.2707907652570144  0.8784964073603682  0.8078058504498915
  0.6645679041626611  0.8378367807567908  0.4969684897031172
  0.3279338299810430  0.3485452817084139  0.3487318843168442
  0.2016448593472230  0.5978906220564917  0.2928111930454640
  0.6799184922554701  0.3571673735863975  0.5643780974197860
  0.1827184487717454  0.0470511743561159  0.1716109468961083
  0.8315483868582509  0.0131456474678176  0.1145022021217801
  0.7407185249268087 -0.0034409991584508  0.2176748081423300
  0.2459340845085871  0.0840164831303441  0.9873975806146795
  0.6432303714507915  0.5649622701167902  0.8383957983949138
  0.3657956170401024  0.5080467828213237  0.9933850959383039
  0.2851253439944057  0.5987802361416037  0.0970891569111039
  0.7329169424335288  0.5824521487998602  0.7309213051309881
  0.3377278563176793  0.8884937606802359  0.5245510909706950
  0.7329795226054955  0.0414230595733949  0.6574045513736323
  0.7450010394777592  0.4982906297673314  0.2945975886783351
  0.2410739304628399  0.3693324209065150  0.6318616387232424
  0.4104320302592565  0.9456893802377667  0.3308110556258452
  0.6305922590342997  0.0274802937654903  0.7714560846434818
  0.8464094125117826  0.5062868194905890  0.1777188636723554
  0.1497827212770138  0.4655760129717610  0.7441987418257706
  0.5025606051036539  0.0190318089476695  0.0405438825609018
  0.9555298237408190  0.4520782285069338  0.8703807658509585
  0.4975862513343368  0.4500297865826301  0.4704934251915125
  0.9938442062042437  0.0242832326419008  0.4548326706327858
  0.3849839542239377  0.0303334241624769  0.0545832085747871
  0.6201230539329589 -0.0009320588843579  0.0435969357816030
  0.8560904069482201  0.5609489498808991  0.9042207863893239
  0.1538480385039042  0.5856003757818684  0.9712025050742130
  0.0586745322788080  0.6679043708910445 -0.0002682158255278
 
             NaN             NaN             NaN
             NaN             NaN             NaN
             NaN             NaN             NaN
             NaN             NaN             NaN
             NaN             NaN             NaN
             NaN             NaN             NaN
             NaN             NaN             NaN
             NaN             NaN             NaN
             NaN             NaN             NaN
             NaN             NaN             NaN
             NaN             NaN             NaN
             NaN             NaN             NaN
             NaN             NaN             NaN
             NaN             NaN             NaN
             NaN             NaN             NaN
             NaN             NaN             NaN
             NaN             NaN             NaN
             NaN             NaN             NaN
             NaN             NaN             NaN
             NaN             NaN             NaN
             NaN             NaN             NaN
             NaN             NaN             NaN
             NaN             NaN             NaN
             NaN             NaN             NaN
             NaN             NaN             NaN
             NaN             NaN             NaN
             NaN             NaN             NaN
             NaN             NaN             NaN
             NaN             NaN             NaN
             NaN             NaN             NaN
             NaN             NaN             NaN
             NaN             NaN             NaN
             NaN             NaN             NaN
             NaN             NaN             NaN
             NaN             NaN             NaN
             NaN             NaN             NaN
             NaN             NaN             NaN
             NaN             NaN             NaN
             NaN             NaN             NaN
             NaN             NaN             NaN
             NaN             NaN             NaN
             NaN             NaN             NaN
             NaN             NaN             NaN
             NaN             NaN             NaN
             NaN             NaN             NaN
             NaN             NaN             NaN
             NaN             NaN             NaN
             NaN             NaN             NaN
             NaN             NaN             NaN
             NaN             NaN             NaN
             NaN             NaN             NaN
             NaN             NaN             NaN
             NaN             NaN             NaN
             NaN             NaN             NaN
             NaN             NaN             NaN
             NaN             NaN             NaN
             NaN             NaN             NaN
             NaN             NaN             NaN
             NaN             NaN             NaN
             NaN             NaN             NaN
             NaN             NaN             NaN
             NaN             NaN             NaN
             NaN             NaN             NaN
             NaN             NaN             NaN
             NaN             NaN             NaN
             NaN             NaN             NaN
             NaN             NaN             NaN
             NaN             NaN             NaN
             NaN             NaN             NaN
             NaN             NaN             NaN
             NaN             NaN             NaN
             NaN             NaN             NaN
             NaN             NaN             NaN
             NaN             NaN             NaN
             NaN             NaN             NaN
             NaN             NaN             NaN
             NaN             NaN             NaN
             NaN             NaN             NaN
             NaN             NaN             NaN
             NaN             NaN             NaN
             NaN             NaN             NaN
