N    C    H    Cd   Ni   O    Li        
   1.00000000000000     
    17.8535150127909219   -0.5733090650703470    1.2863464637216999
    -0.2808695851266069    7.5700128751379578   -0.0382141935033778
    -1.5721572711782899    0.0644206144149908    7.4225895655004557
   N    C    H    Cd   Ni   O    Li
    12    20    40     2     2     4     1
Direct
  0.4909918866182513  0.2065892442083115  0.7718069320694664
  0.5119315483986585  0.7766503256951279  0.2145121837049775
  0.5203452746772149  0.2182311556765099  0.2205148466077477
  0.4816276094494162  0.7683575888052657  0.7684478899614434
  0.9863183114105518  0.7314475158643482  0.7159430951858747
  0.9942427760990291  0.3081497166819798  0.1595614917265141
  0.0235955408236152  0.7572314104154221  0.1594550488533847
  0.9773187386329059  0.2914349373363143  0.7119382666936994
  0.2787031471089763  0.0013181201426446  0.2169875910336989
  0.7278271087522599  1.0027629788294181  0.8042129782354709
  0.7614551322155604  0.5456454458988855  0.1166772245548164
  0.2445560862963427  0.4760388104559574  0.9139001637292478
  0.4946406953481224  0.3176457198265094  0.6637968099308196
  0.5068701388866568  0.6671705810434467  0.3236145828590766
  0.5140582698032116  0.3248570725184998  0.3277590046277829
  0.4870633230545816  0.6613624878405063  0.6609526426089672
  0.9886157670773837  0.8410872342950858  0.6060400912728863
  0.9948789915309219  0.1957685822426342  0.2671463454698717
  0.0107676272187627  0.8564823445961396  0.2679124253855216
  0.9813377640164029  0.1844014663837033  0.6037734527276762
  0.3495956114309365 -0.0047332714143698  0.1825436261965451
  0.6524071936029242  0.9947603149167740  0.8243193562261415
  0.8364083059778167  0.5430131071524630  0.0997230330750789
  0.1679192146486057  0.4525202060881152  0.8892808886417490
  0.2653995364585452  0.0227602839861637  0.3996738017840248
  0.7483445187968298 -0.0219765911033390  0.6262489486736090
  0.7388038353481342  0.5582857524373279  0.2940247005415221
  0.2880111455341030  0.3713088535649149  0.8066804830479760
  0.2123400108976598 -0.0120876923143193  0.0850849854867760
  0.7847752696387013  0.0262485999383720  0.9428215473819005
  0.7058426658758765  0.5353069736487956 -0.0246292168282233
  0.2842994830295690  0.5914847154606382  0.0326923211212896
  0.2262617527968477  0.9149578119140018  0.4365692929779325
  0.7896424024122063  0.0839461200707488  0.5961085592873087
  0.7731727947011483  0.8503805113102498  0.6174645202651020
  0.2393300128583807  0.1486899678148079  0.4118506997541174
  0.7019873498786763  0.4412438039244090  0.3190831492650223
  0.3306430174467144  0.4603894004189078  0.7542484391289729
  0.3158625663411085  0.2681286770849811  0.8886095622946091
  0.7074677271165842  0.6768300502231198  0.3013417570072427
  0.1472141148318515  0.7247122524910687  0.6300409114715922
  0.8276400803972326  0.2260533101557098  0.3446512771594088
  0.8609016745212635  0.8961920306437767  0.3622240297860894
  0.1279112489105811  0.0799931969165563  0.6351098197732377
  0.7515792700985048  0.3633445713416891  0.6196090569221436
  0.2783545543954048  0.6167819938405021  0.4595180643675505
  0.3690103152961352  0.3726729759149921  0.3856427553043317
  0.6288212829952616  0.6123446938936672  0.5751356767362908
  0.1592266282708123  0.0633828111531788  0.7085647576311199
  0.8226105121219001  0.8889800430958805  0.3066664608888710
  0.6679641938337847  0.1169441771017875  0.2687267096968291
  0.1869686757093880  0.7495447742283503  0.6708205199703168
  0.6696232410882809  0.6412155135034102  0.6060112482677541
  0.3329203129085417  0.3870131282089089  0.3252009452112050
  0.2374464426244579  0.5871094267017410  0.4365248638790191
  0.7866602983422941  0.3878636743378457  0.6829198018618816
  0.1763281056566993  0.0956606160904285  0.1095876839599820
  0.8423707027579702  0.0275787473456448  0.9133186457103162
  0.7718461846744766  1.0475225369387244  0.0761888270727814
  0.2309784549679797  0.0096384615183546 -0.0456225314138749
  0.6477439049535734  0.5382410862261977  0.0006360110727971
  0.3446489580042837  0.6128735447433613  0.0301602027315372
  0.2545363746322013  0.6649204655337856  0.1194526021866266
  0.7224298742049466  0.5205988783943140  0.8450740873414482
  0.3187109109296409  0.0240054697800393  0.4900776349781397
  0.6978389099201852 -0.0181395689822195  0.5272077229061617
  0.7891568911301958  0.5655641338124151  0.3935528104312241
  0.2499332494089305  0.3099713442515143  0.6960759262306851
  0.3927264759918409 -0.0013131332076836  0.3008404689122465
  0.6136949196417567  0.9801445586499398  0.6985743196604135
  0.8743015515354781  0.5488980282184998  0.2266525655393879
  0.1443246973332425  0.3517222911146239  0.7912028468609664
  0.4947579767823903  0.9926632079175571 -0.0058465304489960
  0.9883121517310743  0.5079717057572757  0.9274631412273308
  0.5001940078370353  0.4929003651573656  0.4940806498669704
  0.9929701917897706  0.0176529558691743  0.4356201242274558
  0.3675144180942831  0.9852486003217265  0.0261692643402863
  0.6298882859116782  1.0032769322187982  0.9722543459895778
  0.8599994060825348  0.5338614632570557  0.9514938602688399
  0.1257315358610365  0.5419619274696660  0.9715427862802437
  0.1294956866461419  0.7717591095771986  0.0726417870938314
 
             NaN             NaN             NaN
             NaN             NaN             NaN
             NaN             NaN             NaN
             NaN             NaN             NaN
             NaN             NaN             NaN
             NaN             NaN             NaN
             NaN             NaN             NaN
             NaN             NaN             NaN
             NaN             NaN             NaN
             NaN             NaN             NaN
             NaN             NaN             NaN
             NaN             NaN             NaN
             NaN             NaN             NaN
             NaN             NaN             NaN
             NaN             NaN             NaN
             NaN             NaN             NaN
             NaN             NaN             NaN
             NaN             NaN             NaN
             NaN             NaN             NaN
             NaN             NaN             NaN
             NaN             NaN             NaN
             NaN             NaN             NaN
             NaN             NaN             NaN
             NaN             NaN             NaN
             NaN             NaN             NaN
             NaN             NaN             NaN
             NaN             NaN             NaN
             NaN             NaN             NaN
             NaN             NaN             NaN
             NaN             NaN             NaN
             NaN             NaN             NaN
             NaN             NaN             NaN
             NaN             NaN             NaN
             NaN             NaN             NaN
             NaN             NaN             NaN
             NaN             NaN             NaN
             NaN             NaN             NaN
             NaN             NaN             NaN
             NaN             NaN             NaN
             NaN             NaN             NaN
             NaN             NaN             NaN
             NaN             NaN             NaN
             NaN             NaN             NaN
             NaN             NaN             NaN
             NaN             NaN             NaN
             NaN             NaN             NaN
             NaN             NaN             NaN
             NaN             NaN             NaN
             NaN             NaN             NaN
             NaN             NaN             NaN
             NaN             NaN             NaN
             NaN             NaN             NaN
             NaN             NaN             NaN
             NaN             NaN             NaN
             NaN             NaN             NaN
             NaN             NaN             NaN
             NaN             NaN             NaN
             NaN             NaN             NaN
             NaN             NaN             NaN
             NaN             NaN             NaN
             NaN             NaN             NaN
             NaN             NaN             NaN
             NaN             NaN             NaN
             NaN             NaN             NaN
             NaN             NaN             NaN
             NaN             NaN             NaN
             NaN             NaN             NaN
             NaN             NaN             NaN
             NaN             NaN             NaN
             NaN             NaN             NaN
             NaN             NaN             NaN
             NaN             NaN             NaN
             NaN             NaN             NaN
             NaN             NaN             NaN
             NaN             NaN             NaN
             NaN             NaN             NaN
             NaN             NaN             NaN
             NaN             NaN             NaN
             NaN             NaN             NaN
             NaN             NaN             NaN
             NaN             NaN             NaN
