N    C    H    Co   Zn   O    Li        
   1.00000000000000     
    20.1383172057015472    0.6434127454170290    0.2363757651705940
     0.4248658787586473    7.8912690185201662   -0.4072962014604500
    -1.4506869878233530   -0.8581507345828228    6.9294465434664954
   N    C    H    Co   Zn   O    Li
    12    20    40     2     2     4     1
Direct
  0.4852356462262855  0.1569602909009958  0.7740118128737027
  0.4982215777440554  0.8485161995060028  0.1144669948225878
  0.5015650228245581  0.1874614421456557  0.1472918015912880
  0.4872993200816973  0.8121231046540567  0.7455899453631142
  0.0035300441113076  0.6357520590370676 -0.0828820084884872
  0.9910674796830623  0.3304605179732924  0.2342267348347515
 -0.0126166776512328  0.6727326712703031  0.2699383466465914
  0.0041028955080277  0.3062748070127683 -0.1159778832211337
  0.2972048976744038  0.0880019771028850  0.1652703422154817
  0.7058821832467471  0.9430378766428791  0.8232229408187782
  0.7587737837399999  0.6113745620927813  0.1559109066929505
  0.2495931985432350  0.4429814774258878  0.8658627974440398
  0.4946815492938115  0.2658491496435371  0.6928583813124456
  0.4899978675594157  0.7464095947125577  0.2087919824129135
  0.5085124690674399  0.3024526543226183  0.2767476569764791
  0.4901455719127468  0.6774944421500284  0.6471557654790714
  0.0221413788059863  0.7294395857235434  0.8274096011365123
  0.9920726858570692  0.2161209760706521  0.3195537427295850
 -0.0103324602604593  0.8068865403581534  0.3740563136639017
  1.0079619434613516  0.1912736004721178  0.7563216799484371
  0.3521691475888653 -0.0031372489871735  0.1102035233953656
  0.6430749585627568  0.0192994570093409  0.8147766016125713
  0.8131516382182987  0.5222960653624038  0.0902411498301166
  0.1993417957921357  0.5573434604135119  0.9065173616459786
  0.2656590634645440  0.0435553354240310  0.3159853882311722
  0.7421823004657737  0.9383395103906442  0.6641154291423041
  0.7329523790590963  0.5638104808534787  0.3158064045499666
  0.2663945898618730  0.4016057533766351  0.6717559484947386
  0.2586891505875785  0.1976229241598118  1.0338225328104980
  0.7401631281671720 -0.1190980138012714  0.0016577275292836
  0.7140012918585421  0.7056844030584852  1.0171055517443020
  0.2912259020835730  0.3651831473710344  1.0221452869701788
  0.2287007452828564  0.9439312361349446  0.2594168590443849
  0.7766294703663184  0.0436666893960463  0.6903645348041971
  0.7723445540075803  0.8170452984472296  0.6449245942647454
  0.2387117674471312  0.1579764785995987  0.3810355925397011
  0.6974600698691510  0.4601508179877673  0.2677432603350071
  0.3032700649457903  0.4889017822732976  0.6551387489422600
  0.2897043245721673  0.2713020829464825  0.6539288234460675
  0.7055432184957493  0.6743995011768086  0.3860203402188723
  0.1505573075417063  0.7156763197060421  0.5199946892850992
  0.8296532644621774  0.2216338416565767  0.3680672416902809
  0.8771482252994806  0.8000916694375816  0.5238440344902758
  0.1426128611252785  1.0685342478181812  0.5880834508769281
  0.6690070724443127  0.2994384373461282  0.5691431764668407
  0.3605775132439776  0.7321454761915870  0.4433031078896226
  0.3818190413931205  0.3280167277078909  0.4359362203340990
  0.6007160622544953  0.6451527137733196  0.4950022263836871
  0.1611820121416311  0.1489483729617722  0.6050274805375842
  0.8607278166583475  0.8414183987855854  0.4379579743756552
  0.7962949190184020  0.1806217309592613  0.3419169113033986
  0.1870166406911953  0.7362831141927340  0.5355322927093155
  0.6247434207438997  0.6140182259927754  0.5774196006201727
  0.3784929380939778  0.3955485155837029  0.3723810153113054
  0.3240682370887689  0.7106553130975133  0.4163483650045538
  0.6807170466918124  0.3434018102055150  0.6711087716836692
  0.2487721217259856  0.1196815505071717  0.8886592605682432
  0.7322943994132269 -0.0199652735963806  0.1260556006220834
  0.7943648364650399 -0.1316692162978128 -0.0035116561618979
  0.2098816071294780  0.2295483519094739  1.0781505293910429
  0.7100450430893780  0.6224149931789376  0.8746065766478669
  0.2942294329942740  0.4606692021606741  0.1543698063490684
  0.3422069026037164  0.3426110037602966 -0.0087407724978102
  0.6636698892636127  0.7182839721386155  0.0562011328364775
  0.3045567956639668  1.0015017200862586  0.4316492698533591
  0.7053486143807018  0.9441327452606164  0.5287749376491181
  0.7747920014674049  0.5267030069512217  0.4273598550411287
  0.2211222399017516  0.4044325626871317  0.5572971789532999
  0.3758571608740311  0.9028712047958426  0.2042789450002425
  0.6230760075775119  1.0649408081127856  0.6742480843739218
  0.8404253613415392  0.4316766706932131  0.1849009561107495
  0.1689569553344741  0.6068022983016338  0.7799307652641023
  0.4917894085084612  0.0026706367316113  0.9428662213334725
  0.9922063388773557  0.4855227138327172  0.0777977032325412
  0.5020630401348679  0.4374595474288011  0.5317193173836576
  0.9962676345067113  0.0492410647690963  0.4967036578054633
  0.3735837279918744  0.0177495967396321  0.9637661162827170
  0.6114016171074725  0.0400898708191767  0.9514218732690261
  0.8302263735708455  0.5380016729645762  0.9370553356184723
  0.1867795039414445  0.6070026661432817  1.0744716559942136
  0.0954793778957637  0.6684900637959295  1.0961031716680514
 
             NaN             NaN             NaN
             NaN             NaN             NaN
             NaN             NaN             NaN
             NaN             NaN             NaN
             NaN             NaN             NaN
             NaN             NaN             NaN
             NaN             NaN             NaN
             NaN             NaN             NaN
             NaN             NaN             NaN
             NaN             NaN             NaN
             NaN             NaN             NaN
             NaN             NaN             NaN
             NaN             NaN             NaN
             NaN             NaN             NaN
             NaN             NaN             NaN
             NaN             NaN             NaN
             NaN             NaN             NaN
             NaN             NaN             NaN
             NaN             NaN             NaN
             NaN             NaN             NaN
             NaN             NaN             NaN
             NaN             NaN             NaN
             NaN             NaN             NaN
             NaN             NaN             NaN
             NaN             NaN             NaN
             NaN             NaN             NaN
             NaN             NaN             NaN
             NaN             NaN             NaN
             NaN             NaN             NaN
             NaN             NaN             NaN
             NaN             NaN             NaN
             NaN             NaN             NaN
             NaN             NaN             NaN
             NaN             NaN             NaN
             NaN             NaN             NaN
             NaN             NaN             NaN
             NaN             NaN             NaN
             NaN             NaN             NaN
             NaN             NaN             NaN
             NaN             NaN             NaN
             NaN             NaN             NaN
             NaN             NaN             NaN
             NaN             NaN             NaN
             NaN             NaN             NaN
             NaN             NaN             NaN
             NaN             NaN             NaN
             NaN             NaN             NaN
             NaN             NaN             NaN
             NaN             NaN             NaN
             NaN             NaN             NaN
             NaN             NaN             NaN
             NaN             NaN             NaN
             NaN             NaN             NaN
             NaN             NaN             NaN
             NaN             NaN             NaN
             NaN             NaN             NaN
             NaN             NaN             NaN
             NaN             NaN             NaN
             NaN             NaN             NaN
             NaN             NaN             NaN
             NaN             NaN             NaN
             NaN             NaN             NaN
             NaN             NaN             NaN
             NaN             NaN             NaN
             NaN             NaN             NaN
             NaN             NaN             NaN
             NaN             NaN             NaN
             NaN             NaN             NaN
             NaN             NaN             NaN
             NaN             NaN             NaN
             NaN             NaN             NaN
             NaN             NaN             NaN
             NaN             NaN             NaN
             NaN             NaN             NaN
             NaN             NaN             NaN
             NaN             NaN             NaN
             NaN             NaN             NaN
             NaN             NaN             NaN
             NaN             NaN             NaN
             NaN             NaN             NaN
             NaN             NaN             NaN
