N    C    H    Ni   O    Li
   1.00000000000000     
  18.7974309504860990  -0.0830528378413764   1.2472752244283500
  -0.0887790669463532   7.2765522421047697   0.2213610288016420
  -1.7713536569370600   0.2331165072354250   6.9511789213997801
N    C    H    Ni   O    Li
12  20  40  4  4  1  
Direct
  0.4795267913622621  0.2288244740527468  0.8134753371634544  
  0.4987986904620724  0.8230362964722459  0.2045231708366031  
  0.4952235995072783  0.2298149122046965  0.2254514180781163  
  0.4831858463674910  0.8199272682561644  0.7877427497446853  
  0.9891438800344040  0.7685683640677883  0.7532556988823902  
  0.9871839547571610  0.3886912236199661  0.1480061432252143  
  0.0593259772857569  0.8654428648768774  0.1975493661753983  
  0.9980769826603870  0.3723594245641862  0.7564767801007858  
  0.2816262089797154  0.0093500033719797  0.1825002558185365  
  0.7069070668641950  0.0281390733172088  0.9132520984699272  
  0.7695343039096294  0.5412716639437778  0.0465169827001435  
  0.2214958878946452  0.4111070254314769  0.8468561334050939  
  0.4843164892475544  0.3454007227952975  0.6961372489246602  
  0.4972167345649263  0.7046320097276287  0.3221174648551962  
  0.4937898696622068  0.3430646841088835  0.3343470120645379  
  0.4867821245328557  0.7058307104107203  0.6809347404723020  
  0.9958875925764520  0.8943234549219047  0.6452120885520142  
  0.9954859141565940  0.2784989495844847  0.2776917863629192  
  0.0310839098288508  0.9443861331649260  0.3011031047342445  
  0.9972364050354080  0.2602569246001082  0.6453250814881571  
  0.3496963856613690  0.9849249961624784  0.1585157198763247  
  0.6331531124817823  0.0369357127019373  0.8903613260857002  
  0.8413642772126821  0.5847335424169924  0.0803983624170665  
  0.1786414096034357  0.5588748817428425  0.8304667569174391  
  0.2576210950762917  0.9380973699935520  0.3541687627243437  
  0.7424460748677718  0.0493275336300988  0.7473489895842880  
  0.7334260713061013  0.4906965700833822  0.2069659637845709  
  0.2521162354663177  0.3596628578098907  0.6861187282414700  
  0.2307991543692164  0.1128897449776724  0.0375866396312403  
  0.7491470039126348  0.0051314716864769  0.0888345590468595  
  0.7300690584111245  0.5461758446275252  0.8673186558043250  
  0.2497547989914526  0.3199450346465366  0.0318791384291171  
  0.2170603993062405  0.8289964760426073  0.3225274469032090  
  0.7717686198023338  0.1810841012966559  0.7483612548284908  
  0.7807434123181184  0.9360527754279946  0.7526716282602345  
  0.2329723518416445  0.0482358677709188  0.4178549768153215  
  0.7044133593003546  0.3602255634126321  0.1822400371709473  
  0.3080709971898359  0.4094237417497469  0.6990391575623364  
  0.2524946864645984  0.2098746324329432  0.6801098014311608  
  0.6948814684705470  0.5982647625103504  0.2214989298562488  
  0.3015182041034059  0.7271373703997668  0.7590936793738092  
  0.8684568650637605  0.1654896447404670  0.4436355526316234  
  0.8503293899129114  0.7403404772796857  0.5526904359099785  
  0.1325245249414587  0.9773680480390010  0.6248845209262447  
  0.6302943869484339  0.3534306823398790  0.4694498380836419  
  0.3538168436982199  0.5678036691819112  0.3506333236707825  
  0.3688753945747901  0.2060753388902234  0.5144326405439448  
  0.6346340690202893  0.7815057685867890  0.4415745208245273  
  0.1700779745939161  0.9437795201081550  0.6669078083413381  
  0.8239126813962915  0.7676922297557947  0.4638752199876419  
  0.8286244785827652  0.1688876474539384  0.4028333716032794  
  0.3333344031343695  0.7821162922828827  0.8044047449171776  
  0.6677505618950885  0.7553166332930769  0.5133604367157542  
  0.3432965901957600  0.2430660956546735  0.4284518474462834  
  0.3144002298736000  0.5876703756972433  0.3145831277981313  
  0.6665258340691659  0.3647664430841389  0.5318549368865898  
  0.2327781659991132  0.0577442319531126  0.9000358078842926  
  0.7221267135206737  0.9859864397573250  0.2095233888184805  
  0.8071445733078386  0.9983754773010970  0.0982071700251222  
  0.1759533554404387  0.0907058019046570  0.0676849493515403  
  0.7583370070559547  0.5823109092600037  0.7513802173552339  
  0.3087145874763085  0.3370083734808026  0.0622495645033161  
  0.2263846764907267  0.3893619339571576  0.1379026833400145  
  0.6725439560842859  0.5184122688289814  0.8495499008197330  
  0.3040649766970469  0.8839315439475222  0.4560656180650304  
  0.7018283785456506  0.0468419532127634  0.6174058508478543  
  0.7739152203736709  0.4742494087730645  0.3374273543788445  
  0.2192596844613721  0.4196202641869157  0.5549667930680452  
  0.3851461980701826  0.9170547068986248  0.2814736852475145  
  0.6041517346111841  0.0497255903974123  0.7428709719895501  
  0.8688352035376417  0.5653906807365332  0.2289717107715648  
  0.1601409126458213  0.6118453707965645  0.6820744140051933  
  0.4885036774125965  0.0292234801471109  0.0123313192854360  
  0.9698464956154400  0.5460835761572831  0.9139761771084902  
  0.4911513488286432  0.5243736021281014  0.5086170706183091  
  0.0026203551764932  0.0919168067440227  0.4697222167280825  
  0.3723656533490274  0.0360994881407532  0.0086643584879181  
  0.6020402897263589  0.0289440939472979  0.0317613283970539  
  0.8733323378863640  0.6389316411005693  0.9467596980648229  
  0.1611220205049742  0.6337247158867281  0.9671224681197672  
  0.0778718958072488  0.7606816144893148  0.9770977620592570  
