N    C    H    Cr   Mn   O    Li        
   1.00000000000000     
    18.0713090897192359   -0.1786295074116710    0.7302283418478280
    -0.4428393476383606    7.2533456254386186   -0.0624502827392344
    -1.3605390886117716   -0.1096695552308086    6.8957345329662161
   N    C    H    Cr   Mn   O    Li
    12    20    40     2     2     4     1
Direct
  0.4872676551829461  0.1447700544788029  0.7906405911841246
  0.5040728252981467  0.7666517432542567  0.1926821845732062
  0.5154281216448530  0.1534681561482984  0.1909146899180621
  0.4787944509863739  0.7572318473335901  0.7920009969315238
  1.0056748281666950  0.7097951089714198  0.8143532999085513
 -0.0007647924235263  0.3170434447382993  0.2134188002640334
  0.0299272012028886  0.7254808993163274  0.2058167508275382
  0.9819976347905809  0.3141075345518649  0.8049164845509491
  0.2840199376689899  0.0087191671471154  0.1460962633170929
  0.7135856016270457  0.9974254948992251  0.8311197166084795
  0.7866836892895460  0.5215899826717288  0.1550119103070401
  0.2204415814059816  0.4987453155575273  0.8711762368867392
  0.4836664534647284  0.2601537739982321  0.6733952587744785
  0.4991250923529935  0.6483803606580403  0.3046649226127291
  0.5066898009997804  0.2690832036030428  0.3042728818084494
  0.4768997755003403  0.6388705255344699  0.6734830016345102
  0.0031939083337411  0.8247983384690246  0.6947847553396113
 -0.0127226163687634  0.1989099721338009  0.3216386769041313
  0.0142580159367391  0.8345210714281756  0.3194068980595887
  0.9798738296721742  0.1910323593752063  0.6917186595496871
  0.3597759812067517  1.0050009985665709  0.1516761242252669
  0.6380122405013517  0.9762149838875636  0.8280292554553152
  0.8620730690402324  0.5404801487597315  0.1633565806104001
  0.1464055786872235  0.4515029682235334  0.8695364600281638
  0.2556022261119710  0.0467199047941549  0.3290105372079513
  0.7435879629778542  1.0157032718845576  0.6508892901611100
  0.7551610661122620  0.5362791173896956  0.3327015991603038
  0.2560365837934838  0.4322818570477802  0.7130454884582952
  0.2390278603797292  0.9191980008120130 -0.0236060085689026
  0.7628855778104633  1.0177241758829920 -0.0024455070184983
  0.7378322615439361  0.4820817298188956  0.9905521418293002
  0.2580010949728127  0.6264171618769827  0.0081122993296583
  0.2211575345964739  0.9277739168454219  0.3701172551801341
  0.7797999868769551  0.1429830531396256  0.6568744629693036
  0.7775664455480227  0.9014598952138172  0.6257390124859858
  0.2205357667026362  0.1652716773873580  0.3207342926069919
  0.7185287767397229  0.4131366842575748  0.3489961590673432
  0.2934822717646919  0.5409536431590312  0.6666047557594112
  0.2901125967139920  0.3166273254320421  0.7561968236767157
  0.7205997263916905  0.6540799409597090  0.3305604856610032
  0.1485567393254978  0.7307750844219592  0.5347656366976228
  0.8581977576789369  0.2242872359274810  0.4111744254250319
  0.9166190455731204  0.8798554699748584  0.4893124529564969
  0.0828517518561800  0.0486159323502746  0.4905792683179292
  0.6255099819103492  0.3033569220159162  0.5635858233688843
  0.3538595782119833  0.7327711350250632  0.4908153438528430
  0.3822543046316296  0.3577311402769272  0.3561842706420798
  0.6297637732778639  0.6598843137000594  0.5577238599725294
  0.0789054751532958  0.0659386914819215  0.6108105132700140
  0.9051146969033448  0.9844791416065827  0.4364463059337552
  0.8218142301133600  0.2092931340357622  0.3437373753594254
  0.1853722705817471  0.7702032582389973  0.5898841940022425
  0.6620607716217684  0.6564051513808186  0.6386964239689340
  0.3704725399537241  0.4548198162305574  0.3854922998701714
  0.3149794440556276  0.7249302349731763  0.4335206534861362
  0.6596915125488834  0.3195000117102347  0.6392388855877427
  0.1813730547379428 -0.0486647264966009  0.9546996132243639
  0.7390750700942462  1.0358117500330108  0.1271367297129999
  0.8212910070118337 -0.0035053022318781 -0.0065620071702766
  0.2591122860449340 -0.0429470415705245  0.8403728148844265
  0.6783586914616769  0.4769749844149488  0.9968696583636700
  0.2396630880566914  0.6153535579994440  0.1483779212620848
  0.3174253415225047  0.6522520752477053  1.0003994970716423
  0.7611583177375676  0.4806538765434106  0.8587427246559930
  0.3027191332848473  0.0741858136446765  0.4471044220367464
  0.6972756988460509  1.0202661338350980  0.5324548205082786
  0.8004085366606061  0.5501428245402419  0.4550770929190726
  0.2125782014811280  0.3888124161014123  0.5916005151680950
  0.3969918658547341  0.0341372375443252  0.2925002285023885
  0.6028946914773952  0.9724613465542313  0.6869540298545870
  0.8958113132084300  0.5600010299380619  0.3053403504512548
  0.1143462371298427  0.3710221774063870  0.7479454400254750
  0.4980871765042399  0.9564512865034809  0.9909774797511783
  0.0007323728396649  0.5078429020079503  1.0102305719641658
  0.4833562798487653  0.4506549595561823  0.4818860351131789
 -0.0056915475519979  0.0036961174430612  0.5052441089848625
  0.3843549267653064  0.9611130646633412  0.9991348858597157
  0.6094029702357946  0.9616343908886775  0.9811640534831598
  0.8928895327827905  0.5295516025920332  0.0115712041211132
  0.1138763241894649  0.5121260890075644  1.0055061363618940
  0.0992667259848460  0.7763292406474338  0.0100771721732297
 
             NaN             NaN             NaN
             NaN             NaN             NaN
             NaN             NaN             NaN
             NaN             NaN             NaN
             NaN             NaN             NaN
             NaN             NaN             NaN
             NaN             NaN             NaN
             NaN             NaN             NaN
             NaN             NaN             NaN
             NaN             NaN             NaN
             NaN             NaN             NaN
             NaN             NaN             NaN
             NaN             NaN             NaN
             NaN             NaN             NaN
             NaN             NaN             NaN
             NaN             NaN             NaN
             NaN             NaN             NaN
             NaN             NaN             NaN
             NaN             NaN             NaN
             NaN             NaN             NaN
             NaN             NaN             NaN
             NaN             NaN             NaN
             NaN             NaN             NaN
             NaN             NaN             NaN
             NaN             NaN             NaN
             NaN             NaN             NaN
             NaN             NaN             NaN
             NaN             NaN             NaN
             NaN             NaN             NaN
             NaN             NaN             NaN
             NaN             NaN             NaN
             NaN             NaN             NaN
             NaN             NaN             NaN
             NaN             NaN             NaN
             NaN             NaN             NaN
             NaN             NaN             NaN
             NaN             NaN             NaN
             NaN             NaN             NaN
             NaN             NaN             NaN
             NaN             NaN             NaN
             NaN             NaN             NaN
             NaN             NaN             NaN
             NaN             NaN             NaN
             NaN             NaN             NaN
             NaN             NaN             NaN
             NaN             NaN             NaN
             NaN             NaN             NaN
             NaN             NaN             NaN
             NaN             NaN             NaN
             NaN             NaN             NaN
             NaN             NaN             NaN
             NaN             NaN             NaN
             NaN             NaN             NaN
             NaN             NaN             NaN
             NaN             NaN             NaN
             NaN             NaN             NaN
             NaN             NaN             NaN
             NaN             NaN             NaN
             NaN             NaN             NaN
             NaN             NaN             NaN
             NaN             NaN             NaN
             NaN             NaN             NaN
             NaN             NaN             NaN
             NaN             NaN             NaN
             NaN             NaN             NaN
             NaN             NaN             NaN
             NaN             NaN             NaN
             NaN             NaN             NaN
             NaN             NaN             NaN
             NaN             NaN             NaN
             NaN             NaN             NaN
             NaN             NaN             NaN
             NaN             NaN             NaN
             NaN             NaN             NaN
             NaN             NaN             NaN
             NaN             NaN             NaN
             NaN             NaN             NaN
             NaN             NaN             NaN
             NaN             NaN             NaN
             NaN             NaN             NaN
             NaN             NaN             NaN
