N    C    H    Hg   Pt   O    Li        
   1.00000000000000     
    16.5388694792077580   -0.1280392503390580   -0.2317619343053700
    -0.2896428137012327    8.0379026151166606    0.1577564137953730
    -2.1753883539380121    0.6843537328613756    7.5386099614355775
   N    C    H    Hg   Pt   O    Li
    12    20    40     2     2     4     1
Direct
  0.4966458429060240  0.2070146119134973  0.7941234457491224
  0.5329441489456356  0.7908852389592272  0.2142356598017871
  0.5357081340234192  0.2257906015839886  0.2559276371147279
  0.4955903400991876  0.7712862327604746  0.7478122744021866
  0.9935394677926942  0.6947818604644859  0.8054754043135299
  0.0135017316421842  0.2794373655650944  0.2069851171014167
  0.0527070108119489  0.7143038285535094  0.2646826890764342
  0.9368170535717817  0.2472885577983486  0.6755319571799510
  0.2767985727610312  0.9916623896652609  0.1913507865957788
  0.7416033773100824  0.0199677010092915  0.7918609415429551
  0.7581708809015044  0.5315267404867337  0.2108762700243545
  0.2388624170683064  0.5186594007955756  0.8175805823541964
  0.4989923720114789  0.3158579698469302  0.6831745237554453
  0.5224218816255082  0.6806489902697297  0.3169772715820567
  0.5237287081152598  0.3267033653688929  0.3425691671390079
  0.4985595764695185  0.6685278690567714  0.6549809539121806
  0.9932838039158464  0.7934961551198024  0.6832102351625539
  1.0106068399407846  0.1616132170023334  0.3090393908565802
  0.0344723214341742  0.8080732601600386  0.3512625190416007
  0.9618629790770237  0.1409734324722946  0.6135497313716803
  0.3540630716841737  1.0156988713238879  0.1615439293298009
  0.6705312693012935  1.0052416966581890  0.8453220437649764
  0.8343765826174301  0.5529572018059897  0.1743641808895120
  0.1651399941729761  0.5093459622746953  0.8655121347171114
  0.2707629471712514  0.0094994045352311  0.3695063110828326
  0.7347521270622124  0.0115750758174754  0.6037125447818987
  0.7580516185140940  0.4997494580879336  0.3982521744492909
  0.2365261306439056  0.4784159345845003  0.6390197238166506
  0.2068234488343041  0.9394214791166233  0.0703562763475172
  0.8230091770551040  1.0431668529033251  0.9115658188712162
  0.6836646413934487  0.5312633552542991  0.0812059118892780
  0.3130493695760223  0.5723384063825649  0.9262760597961872
  0.2586085161573835  0.8863958828453299  0.4318769358844988
  0.7528699478500456  0.1313988300587456  0.5428788039050532
  0.7774637067267594  0.9153032182554465  0.5932786568551667
  0.2185705207176331  0.0938430841637570  0.3564565142858854
  0.7249953194153518  0.3809904728289578  0.4153727249209825
  0.2545374281471062  0.5882908549084563  0.5618926373393288
  0.2805754131015020  0.3765955646905675  0.6507659837592191
  0.7251446963033131  0.5997389902920972  0.4336682350736107
  0.1808849591615210  0.8473190991820879  0.6422617691073623
  0.8208205277372710  0.1975329952076033  0.3067429378526083
  0.8150911494505818  0.8601271548594575  0.3244142775196808
  0.1482422283752863  0.1439653630910433  0.7219050585218639
  0.6606854564922310  0.3459879710806540  0.6795831711190078
  0.3299445744101571  0.6726720181042447  0.3497449619093843
  0.2962329805899753  0.3523939970225765  0.3117790175191203
  0.6789574471854378  0.6597699319983205  0.6644129689340948
  0.1937130693565316  0.1688148855368966  0.7589232949883513
  0.7706532924197903  0.8724005064279514  0.2646018944116211
  0.7829212704944563  0.1804197385097198  0.2306159272741536
  0.2277961137505738  0.8434444243298010  0.6859652391709300
  0.7235807484278481  0.6611642965559651  0.7240462924938085
  0.2542359720502793  0.3848009909387963  0.2534656537746006
  0.2869667034548216  0.6681769336568859  0.2835237511454830
  0.7040107606528266  0.3428541473077937  0.7460456369412014
  0.1505279399155980 -0.0891453857309803  0.1120790832701786
  0.8268161238173961  0.9922032790595833  0.0480664347469072
  0.8725581253943558  0.9939222220391661  0.8660326382867245
  0.2127421593287383 -0.0758786839496343 -0.0595779420974415
  0.6263911033423781  0.5034717895587266  1.1202769198453009
  0.3677798640399740  0.5837551134881687  0.8758932031954296
  0.3138724933607457  0.6040040735938591  0.0568727183198356
  0.6841644717883828  0.5597832792470663 -0.0563497419069469
  0.3300693983125316  0.0608954540845831  0.4499129615513520
  0.6694799958543608 -0.0192112299599083  0.5310328125071401
  0.8231984211130778  0.4901348447447949  0.4853110481486009
  0.1725422866813478  0.4393566346764006  0.5680744926974906
  0.4042152456738585  0.0444633724608649  0.2810965333596694
  0.6135451851769391  0.9755952758339237  0.7384721225165783
  0.8891654789900250  0.5543486952144745  0.2934856728604329
  0.1098671757141343  0.4731754085146079  0.7591043979034510
  0.5166788049629371  1.0114252501575616  0.0183357625567060
  0.8670266594192102  0.3027418867532710  0.9359768176705368
  0.5089132103546433  0.4972129343606538  0.4973385578732517
  1.0005852842752370  0.9723346699487729  0.4892272181510747
  0.3672673632449955  1.0036156718056963  0.0138980519938380
  0.6681694257063832  1.0194800595880957  1.0003247788445750
  0.8408022573318514  0.5663857518914615  1.0169103628467859
  0.1610912855107330  0.5417413034845487  1.0145590556416746
  0.0541853324862245  0.5746682043715150  0.0655218413253968
 
             NaN             NaN             NaN
             NaN             NaN             NaN
             NaN             NaN             NaN
             NaN             NaN             NaN
             NaN             NaN             NaN
             NaN             NaN             NaN
             NaN             NaN             NaN
             NaN             NaN             NaN
             NaN             NaN             NaN
             NaN             NaN             NaN
             NaN             NaN             NaN
             NaN             NaN             NaN
             NaN             NaN             NaN
             NaN             NaN             NaN
             NaN             NaN             NaN
             NaN             NaN             NaN
             NaN             NaN             NaN
             NaN             NaN             NaN
             NaN             NaN             NaN
             NaN             NaN             NaN
             NaN             NaN             NaN
             NaN             NaN             NaN
             NaN             NaN             NaN
             NaN             NaN             NaN
             NaN             NaN             NaN
             NaN             NaN             NaN
             NaN             NaN             NaN
             NaN             NaN             NaN
             NaN             NaN             NaN
             NaN             NaN             NaN
             NaN             NaN             NaN
             NaN             NaN             NaN
             NaN             NaN             NaN
             NaN             NaN             NaN
             NaN             NaN             NaN
             NaN             NaN             NaN
             NaN             NaN             NaN
             NaN             NaN             NaN
             NaN             NaN             NaN
             NaN             NaN             NaN
             NaN             NaN             NaN
             NaN             NaN             NaN
             NaN             NaN             NaN
             NaN             NaN             NaN
             NaN             NaN             NaN
             NaN             NaN             NaN
             NaN             NaN             NaN
             NaN             NaN             NaN
             NaN             NaN             NaN
             NaN             NaN             NaN
             NaN             NaN             NaN
             NaN             NaN             NaN
             NaN             NaN             NaN
             NaN             NaN             NaN
             NaN             NaN             NaN
             NaN             NaN             NaN
             NaN             NaN             NaN
             NaN             NaN             NaN
             NaN             NaN             NaN
             NaN             NaN             NaN
             NaN             NaN             NaN
             NaN             NaN             NaN
             NaN             NaN             NaN
             NaN             NaN             NaN
             NaN             NaN             NaN
             NaN             NaN             NaN
             NaN             NaN             NaN
             NaN             NaN             NaN
             NaN             NaN             NaN
             NaN             NaN             NaN
             NaN             NaN             NaN
             NaN             NaN             NaN
             NaN             NaN             NaN
             NaN             NaN             NaN
             NaN             NaN             NaN
             NaN             NaN             NaN
             NaN             NaN             NaN
             NaN             NaN             NaN
             NaN             NaN             NaN
             NaN             NaN             NaN
             NaN             NaN             NaN
