N    C    H    Cd   Ni   O    Li
   1.00000000000000     
  17.8752421918665014  -0.8384443699862060   1.9327192331465302
  -0.4213303196401520   7.3650340751059495  -0.0858328540235466
  -1.3276774523803800   0.0416517616826646   7.6256857288026598
N    C    H    Cd   Ni   O    Li
12  20  40  2  2  4  1  
Direct
  0.4966572950730273  0.2368092423974580  0.7621498234379841  
  0.5038025600823272  0.7894148542543490  0.1854728118883788  
  0.5172744810522594  0.2355203552916461  0.2012626676279947  
  0.4817976365685293  0.7972564459150020  0.7483325748240395  
  0.9924398945048016  0.7487222392163998  0.7023135386005768  
  0.9890774312576937  0.3260955067309694  0.1474287901822784  
  0.0182028837421091  0.7738091361589610  0.1371627463333336  
  0.9872619703265432  0.3067409528962133  0.7098606138507288  
  0.2841310448771526  0.9824541341368652  0.2497817201359781  
  0.7396418851478989  0.0161307344854819  0.8415414022881222  
  0.7454020242151164  0.5294176416878245  0.0342882278484209  
  0.2361337140405354  0.4504058268318545  0.9106327112434468  
  0.4973622306661524  0.3426801054026462  0.6488701867193499  
  0.5012956664119395  0.6846101045448889  0.2996566679369976  
  0.5103908493943942  0.3415386405379064  0.3101999983765693  
  0.4872472307672184  0.6895130597265082  0.6399713288337623  
  0.9942013060136144  0.8570344490609921  0.5910787865227234  
  0.9924678936806588  0.2155409695074940  0.2560887843993011  
  0.0076391146936485  0.8721777374156309  0.2501172910957096  
  0.9889399463003355  0.2028943150296268  0.5962686330910935  
  0.3516820507942222  0.9820493487970642  0.1884234255179032  
  0.6626849616578149  0.0033430156527800  0.8377317420311777  
  0.8219933320480113  0.5521621137373637  0.0473520065109273  
  0.1672520893094719  0.4939950859042204  0.8558741456350268  
  0.2760102896891104  0.9359109567397800  0.4304965741624349  
  0.7764213630028812  0.9874935921372804  0.6822442472451515  
  0.7041875394002207  0.5579093525524209  0.1877786327636848  
  0.2832173797899078  0.3779367242338135  0.7848578197501269  
  0.2173032688471454  0.0190842359563034  0.1492740653377763  
  0.7827162901044747  0.0530466230097729  0.9911319504896404  
  0.7057658657238887  0.4827528303251347  0.8824526544619380  
  0.2653153399756297  0.4754970298329813  0.0760578009537615  
  0.2370730028698082  0.8115282881291328  0.4412367092825375  
  0.8175367380816700  0.1042890153266929  0.6592791399922997  
  0.8053027759146628  0.8636047111801692  0.6929147505407685  
  0.2525562464710160  0.0462731836272163  0.4969594177483636  
  0.6654765008555992  0.4365518098463954  0.2106710258819044  
  0.3297269481101127  0.4808588321655513  0.7593077060782852  
  0.3057152171252006  0.2553488713953159  0.8384512240075599  
  0.6720562886449413  0.6756311346093836  0.1683024444631346  
  0.2685365923380114  0.7927104952380362  0.7587423909176413  
  0.8263717070043090  0.2449239471295316  0.3506378480944384  
  0.8561473820040874  0.8835501994988725  0.3727831183424689  
  0.1310584526837039  0.0346936913465647  0.7165133156390705  
  0.8277263627555540  0.4797636687668299  0.5131795173875188  
  0.1427653619490998  0.5708775359932340  0.4255903535798272  
  0.3565353057105346  0.3843155855277820  0.4341201403275363  
  0.6336081419187876  0.6278862154431074  0.5242608470324214  
  0.1690493077135538  0.0226938088252946  0.7581581975261756  
  0.8191129763252040  0.8857314333794188  0.3220668636889996  
  0.6379306244023911  0.0307320388699629  0.3628284152200605  
  0.2930142502406632  0.8448584416814238  0.8283318042571165  
  0.6739695810717297  0.6440564308804319  0.5584562630768286  
  0.3185283649056707  0.3483542640180340  0.3947002588525281  
  0.1174593445360402  0.4999705506482708  0.3746984371459683  
  0.8396033122624074  0.5271715259411782  0.5979342851540616  
  0.2332705605210681  0.0802916872141094  0.0260944629239808  
  0.7541047411705227  0.0781712686337688  0.1064001248915347  
  0.8431632496264569  0.0667462723990294  0.9858750778501872  
  0.1873822218973501  0.1140502218646780  0.2221317489096684  
  0.6451297218068808  0.4648189218341214  0.8807999676291056  
  0.3225771470889076  0.4467705508029863  0.1051061291250986  
  0.2314702553394741  0.5297594615519968  0.1702705841120079  
  0.7370482840284187  0.4589725302338515  0.7711723726537730  
  0.3304023858231938  0.9148058412658224  0.4950383978118725  
  0.7341657009287411  0.9733524626111087  0.5733277790567859  
  0.7441067943021434  0.5827145607758353  0.2999376608457731  
  0.2494503496824576  0.3450317613349923  0.6643088953643207  
  0.3951560245582459  0.9431769772061877  0.2837109057236244  
  0.6345602957998122  0.9752667264363396  0.7082837960332106  
  0.8468030024396553  0.5853329448153283  0.1785315109840665  
  0.1486357660541171  0.4539974293566244  0.7224969101679596  
  0.4921572025863567  0.0149554839964231  0.9750851746049572  
  0.9902946159880138  0.5300269819886708  0.9188885332439708  
  0.4986662107341566  0.5147471386472370  0.4750638596230532  
  0.9950967567276868  0.0356591140864982  0.4226924445088194  
  0.3664198970290168  0.0203230053808634  0.0327295485512474  
  0.6285620793639209  0.0219573526886160  0.9704646444402421  
  0.8602086481625090  0.5354680487498653  0.9192007670358352  
  0.1258482163329170  0.5725291513524596  0.9537564796835368  
  0.1335623093256104  0.7982209407348179  0.0787133500731152  
