N    C    H    Fe   Cu   O    Li        
   1.00000000000000     
    17.7917651833157748    0.2761970823995840    1.6973121097148900
    -0.2825692932237082    7.6625172153092320   -0.8015719912393030
    -0.9081762040969029   -1.2520162125001901    7.9240119475863811
   N    C    H    Fe   Cu   O    Li
    12    20    40     2     2     4     1
Direct
  0.4728249435493078  0.2713788444695867  0.7860067508414301
  0.6222024295791220  0.7199005844057008  0.3989982974758718
  0.4693289363500414  0.2554144404191541  0.1845061636606775
  0.4530955344803405  0.8656381430119495  0.8030095220017988
  0.0012731708833157  0.6180269281740668  0.8632607404435779
  0.0284530873076865  0.2875571955177973  0.1352463087224205
  0.0150228055794322  0.6553813538536533  0.1903532083319005
  0.0156502230692220  0.2693962487245137  0.7784041840295287
  0.2522201392303676  1.0295223938757094  0.1449440029396348
  0.6992005932122844  0.0480784428262337  0.8597891865843229
  0.8011737434840952  0.4178642171910287  0.1721236240909169
  0.2413333381098927  0.5314744734662309  0.8611019121791245
  0.4900074048711754  0.3621505688446559  0.6937891201592226
  0.5765284401379619  0.6398262209931513  0.4553893726199313
  0.4664872438710773  0.3576540562352453  0.3198604456211220
  0.4552958671700011  0.7311805806016762  0.6941737919455755
  0.9972164716152776  0.7378265730382410  0.7988785463858702
  0.0269828825579538  0.1966841987290562  0.2330776421811054
  0.0147135351444436  0.7991396426948999  0.2850675807754387
  0.0152099053545803  0.1853808190108881  0.6329428617666589
  0.3258546927261334  0.0616311341182270  0.1165107605514033
  0.6248104005898187  0.0330040902891704  0.8376920674751571
  0.8743908097783378  0.4396617387821047  0.1506678666675551
  0.1645021706906908  0.5071358869091190  0.8601652641130195
  0.2322322912487599  0.9998848836408003  0.3105822510106966
  0.7497580936831810  0.0018249582329722  0.7183228614873085
  0.7701804992705764  0.4392056746532536  0.3413179082184628
  0.2777496398235539  0.4869985112127848  0.6947354462328487
  0.1975102009057580  0.0333151867716564  0.0272646309220163
  0.7323520863768583  0.1396993820231552  0.0253872087995580
  0.7490519380216613  0.3403845805567014  0.0308361750780888
  0.2861694361198691  0.5765261004857251  1.0033101086327267
  0.1984442070324674  0.8750645763268917  0.2910545071189276
  0.7834190266916572  0.1213516049843039  0.7116287937077242
  0.7882267977726143  0.9000355702515436  0.7383922757193592
  0.1993282013562199  0.1110630697527695  0.3806161228092443
  0.7494666319939008  0.3084582833525213  0.3552635937679208
  0.3151292830439666  0.5977976115369418  0.6816715536756963
  0.3118325469611830  0.3692229947959847  0.6873036478392579
  0.7225764310080766  0.5282987226636523  0.3558645467298746
  0.1301878276184013  0.7129173609870644  0.4912785841125622
  0.8774456921766945  0.1223911651715534  0.4416142009069433
  0.8137334100871059  0.7984045724642028  0.3449904029563383
  0.1582005794304976  0.1470768653975005  0.6684797683198195
  0.6303642520287949  0.2855480530127084  0.5185624787598032
  0.4148314843294130  0.7648696737524524  0.3622847872365009
  0.3034026283850809  0.4242967403926786  0.3235070557058172
  0.6848337393747140  0.6398532277277872  0.6614619954418546
  0.1992703782358905  0.1320741084743669  0.6755334830930243
  0.7728184967862690  0.7861966353611820  0.3594310037928407
  0.8379554310297387  1.0892431671042160  0.4147393161472665
  0.1691745889617310  0.7287701840092300  0.5300379076772993
  0.7143310949898177  0.6332015240842839  0.7272219639907459
  0.2619124612849528  0.4199434362200059  0.3055433025348148
  0.3841398811475439  0.7790173799653997  0.3025221010720357
  0.6550990958283879  0.2063041876464333  0.5024178057213743
  0.2143282390726362  0.0642660479969481  0.9096864526096462
  0.6935757246860839  0.1221145487782304  0.1241724034174907
  0.7845200849868281  0.0734678940788294  0.0440779990825323
  0.1399960365445555  1.0108694557723674  0.0584181789838648
  0.7730912118220310  0.3576879785255108  0.9122523475347708
  0.2627592056611865  0.5879392662494248  0.1273938556039821
  0.3457001342482162  0.5973098918980457  0.9896083669674574
  0.6980751550301929  0.4180862270796428  0.0457968057015575
  0.2833234396904551  0.9914567490290996  0.3850719837694018
  0.7175799639239919  0.9493016571024727  0.5984033480434463
  0.8132192430125353  0.4931709416499349  0.4406534081895672
  0.2348574167982120  0.4571058830193674  0.5922796610233750
  0.3646818596431360  1.0575375952246149  0.2225426593911739
  0.6043220961461039 -0.0272453264650115  0.7055186329578697
  0.9078309548678319  0.4837446586500465  0.2701477102715072
  0.1373655823692922  0.4851583159673486  0.7332623860913172
  0.4671221592885522  0.1165213729740856  0.9415010256216011
  0.0162745339025029  0.4534067549615077  0.9939426722678995
  0.4940127404279042  0.5182863308973105  0.5410940028974960
  0.0173354717651656  0.0520489425707916  0.3974630813786310
  0.3465270477857430  0.0958188679997252  0.9803425868112082
  0.5819643370341677  0.0854147566486710  0.9606718037470759
  0.9044360923667689  0.4127538120539063  0.0060040551868955
  0.1286966900418582  0.5093070066772674 -0.0068288381328666
  0.0045164623373365  0.9877086018135091  0.7774677507940513
 
             NaN             NaN             NaN
             NaN             NaN             NaN
             NaN             NaN             NaN
             NaN             NaN             NaN
             NaN             NaN             NaN
             NaN             NaN             NaN
             NaN             NaN             NaN
             NaN             NaN             NaN
             NaN             NaN             NaN
             NaN             NaN             NaN
             NaN             NaN             NaN
             NaN             NaN             NaN
             NaN             NaN             NaN
             NaN             NaN             NaN
             NaN             NaN             NaN
             NaN             NaN             NaN
             NaN             NaN             NaN
             NaN             NaN             NaN
             NaN             NaN             NaN
             NaN             NaN             NaN
             NaN             NaN             NaN
             NaN             NaN             NaN
             NaN             NaN             NaN
             NaN             NaN             NaN
             NaN             NaN             NaN
             NaN             NaN             NaN
             NaN             NaN             NaN
             NaN             NaN             NaN
             NaN             NaN             NaN
             NaN             NaN             NaN
             NaN             NaN             NaN
             NaN             NaN             NaN
             NaN             NaN             NaN
             NaN             NaN             NaN
             NaN             NaN             NaN
             NaN             NaN             NaN
             NaN             NaN             NaN
             NaN             NaN             NaN
             NaN             NaN             NaN
             NaN             NaN             NaN
             NaN             NaN             NaN
             NaN             NaN             NaN
             NaN             NaN             NaN
             NaN             NaN             NaN
             NaN             NaN             NaN
             NaN             NaN             NaN
             NaN             NaN             NaN
             NaN             NaN             NaN
             NaN             NaN             NaN
             NaN             NaN             NaN
             NaN             NaN             NaN
             NaN             NaN             NaN
             NaN             NaN             NaN
             NaN             NaN             NaN
             NaN             NaN             NaN
             NaN             NaN             NaN
             NaN             NaN             NaN
             NaN             NaN             NaN
             NaN             NaN             NaN
             NaN             NaN             NaN
             NaN             NaN             NaN
             NaN             NaN             NaN
             NaN             NaN             NaN
             NaN             NaN             NaN
             NaN             NaN             NaN
             NaN             NaN             NaN
             NaN             NaN             NaN
             NaN             NaN             NaN
             NaN             NaN             NaN
             NaN             NaN             NaN
             NaN             NaN             NaN
             NaN             NaN             NaN
             NaN             NaN             NaN
             NaN             NaN             NaN
             NaN             NaN             NaN
             NaN             NaN             NaN
             NaN             NaN             NaN
             NaN             NaN             NaN
             NaN             NaN             NaN
             NaN             NaN             NaN
             NaN             NaN             NaN
