N    C    H    Pt   Ni   O    Li        
   1.00000000000000     
    20.3129711694496820    0.0161091815174339    0.5178802036459450
     0.1263498547736586    7.2771195961333488    0.0060034871875436
    -2.0997665697056407    0.0465360250089691    6.4957954751111382
   N    C    H    Pt   Ni   O    Li
    12    20    40     2     2     4     1
Direct
  0.4951351470893494  0.1972461180401381  0.8008461651689457
  0.4970951528198452  0.8096464100924626  0.2025911097569376
  0.5014953229410534  0.1978487972815223  0.2054905183296014
  0.4975669857804430  0.8086803970964385  0.8037161882469037
  0.0067937271765420  0.6980819114544647  0.8151641909961210
  0.0036617330258219  0.3089913011498261  0.2107384153993273
  1.0004739894782895  0.6973562812543470  0.2090705621562280
  0.9998454182667059  0.3099374207578317  0.8082037843457199
  0.2555577387281389  0.0102327117103456  0.2632053550159428
  0.7529675213681232  0.9992016150484707  0.7951505769297375
  0.7447547228055075  0.5012584097865160  0.2039834133905402
  0.2432505866948472  0.4999094233418630  0.7422287674302545
  0.4942691075308164  0.3190312641945250  0.6871452983345681
  0.4962613617714643  0.6875349831321413  0.3143268200619220
  0.5024864536463287  0.3194090753332486  0.3189452281171044
  0.4985724154890372  0.6869013971445084  0.6920857166094716
  0.0069144035023679  0.8201365382070768  0.7021020234899007
  0.0044462091671320  0.1867783670124447  0.3239286487783637
  0.9987328158629699  0.8194098251090804  0.3197973146679576
  0.9977399239303890  0.1883300677119859  0.6938935253482261
  0.2824682346130561  0.9882336803181051  0.1051428573411373
  0.7109997413472621  1.0078080571291681  0.9238859519082662
  0.7861155522351561  0.5083819451187482  0.0736724125678009
  0.1934907829618450  0.5185519122234402  0.8409729410203545
  0.2994780438366536  0.9963820075069781  0.4723344626317280
  0.7217829126979906  0.9906563367762478  0.5744521566731542
  0.7765575023850326  0.4906045474848007  0.4244561251139749
  0.2206099964734903  0.4709610984018103  0.5208470254921024
  0.1834177147574350  0.0154547408551597  0.2291259224586213
  0.8223802551242299  0.9976091466731504  0.8700460054904786
  0.6752864436933690  0.5024747110081844  0.1308200447625014
  0.3110216697580844  0.5248238767561755  0.8372057596978959
  0.2881658011153091  0.8709431103409080  0.5457990399583389
  0.7379208330129695  0.1061670894530549  0.4973030941159692
  0.7374076680070381  0.8635312810782743  0.5132535609670088
  0.2902051070381152  0.1129805931307168  0.5630622045052612
  0.7627157859096322  0.3628115389967281  0.4864733083643039
  0.2265292002070978  0.5974568520048104  0.4403834845889706
  0.2508628743093959  0.3605614681200416  0.4781412155558555
  0.7592213425888685  0.6052337174332379  0.5019467005401592
  0.1296081405813432  0.7994144168407582  0.5673449661154437
  0.8695442312738330  0.1885524236697235  0.3823756149463922
  0.8656681229770569  0.8076695957974689  0.4128935774645544
  0.1275358308244821  0.1654334953088445  0.6295993084874314
  0.6337938947518386  0.3074050121654592  0.6020802930748699
  0.3644890365989565  0.6597365110297949  0.3742400414799629
  0.3675238633442409  0.3190226720089824  0.3481217992365960
  0.6284720366512255  0.6891529499275499  0.6019944991612142
  0.1625976781146466  0.1492468111361240  0.7031215725602834
  0.8333392234941603  0.8442432131010664  0.3385345120005923
  0.8354998010435628  0.1596198760507051  0.3133458184060016
  0.1658155512892493  0.8291120191241900  0.6146551768308141
  0.6618776547203368  0.6571776267467477  0.6749674379865758
  0.3335983832989863  0.3128223472270260  0.2682995499388677
  0.3278327596068464  0.6530879525661886  0.3106559541676535
  0.6659062839425309  0.3431863692055896  0.6753145387512379
  0.1683089276233255  0.0564200493656316  0.3625843947356898
  0.8528760968322806  0.9882499650375520  0.7633156809345418
  0.8445430628081666  0.0042894003721643  1.0340288818759735
  0.1563637780858897  0.0992546627247952  0.0977220443856911
  0.6526064407730283  0.5090619268028123  0.9669131430828226
  0.3471847953137674  0.5113859639191951  0.7476846790801679
  0.3264412230424416  0.5541338237018639 -0.0008080436595169
  0.6453271463986081  0.4947736412632937  0.2389321622592892
  0.3534320352535841  0.9916325096838646  0.4732088175290090
  0.6658636818167961 -0.0049935222487696  0.5407800321592602
  0.8323908706664656  0.4942630006071068  0.4569669355000520
  0.1663932782081269  0.4346181158276231  0.4743532571836577
  0.3388875143423476  0.9886371875058827  0.1446515480745835
  0.6558653558583587  1.0078738594352867  0.8396894338988967
  0.8413796452864141  0.5070513767220649  0.1563956437856069
  0.1419906915152914  0.4828231535525249  0.7453720420595906
  0.4978681694770332  0.0034911528504397  0.0032750323330640
  1.0027906519147973  0.5034724442679144  0.0108295380369508
  0.4980799447169163  0.5032172506294781  0.5032825256912729
  1.0015013050750059  0.0035538744172463  0.5097381024047084
  0.2446779119455455  0.9662863212969635  0.9244826369838436
  0.7329691960552378  1.0146432253648572  0.1121040119363435
  0.7634582927433020  0.5156241792762031  0.8854387592772753
  0.2043705120696669  0.5746686943908367  0.0209136378762262
  0.1676845540441747  0.8265830075139143  0.9791556490714047
 
             NaN             NaN             NaN
             NaN             NaN             NaN
             NaN             NaN             NaN
             NaN             NaN             NaN
             NaN             NaN             NaN
             NaN             NaN             NaN
             NaN             NaN             NaN
             NaN             NaN             NaN
             NaN             NaN             NaN
             NaN             NaN             NaN
             NaN             NaN             NaN
             NaN             NaN             NaN
             NaN             NaN             NaN
             NaN             NaN             NaN
             NaN             NaN             NaN
             NaN             NaN             NaN
             NaN             NaN             NaN
             NaN             NaN             NaN
             NaN             NaN             NaN
             NaN             NaN             NaN
             NaN             NaN             NaN
             NaN             NaN             NaN
             NaN             NaN             NaN
             NaN             NaN             NaN
             NaN             NaN             NaN
             NaN             NaN             NaN
             NaN             NaN             NaN
             NaN             NaN             NaN
             NaN             NaN             NaN
             NaN             NaN             NaN
             NaN             NaN             NaN
             NaN             NaN             NaN
             NaN             NaN             NaN
             NaN             NaN             NaN
             NaN             NaN             NaN
             NaN             NaN             NaN
             NaN             NaN             NaN
             NaN             NaN             NaN
             NaN             NaN             NaN
             NaN             NaN             NaN
             NaN             NaN             NaN
             NaN             NaN             NaN
             NaN             NaN             NaN
             NaN             NaN             NaN
             NaN             NaN             NaN
             NaN             NaN             NaN
             NaN             NaN             NaN
             NaN             NaN             NaN
             NaN             NaN             NaN
             NaN             NaN             NaN
             NaN             NaN             NaN
             NaN             NaN             NaN
             NaN             NaN             NaN
             NaN             NaN             NaN
             NaN             NaN             NaN
             NaN             NaN             NaN
             NaN             NaN             NaN
             NaN             NaN             NaN
             NaN             NaN             NaN
             NaN             NaN             NaN
             NaN             NaN             NaN
             NaN             NaN             NaN
             NaN             NaN             NaN
             NaN             NaN             NaN
             NaN             NaN             NaN
             NaN             NaN             NaN
             NaN             NaN             NaN
             NaN             NaN             NaN
             NaN             NaN             NaN
             NaN             NaN             NaN
             NaN             NaN             NaN
             NaN             NaN             NaN
             NaN             NaN             NaN
             NaN             NaN             NaN
             NaN             NaN             NaN
             NaN             NaN             NaN
             NaN             NaN             NaN
             NaN             NaN             NaN
             NaN             NaN             NaN
             NaN             NaN             NaN
             NaN             NaN             NaN
