N    C    H    Pd   O    Li             
   1.00000000000000     
    25.0723626825792891    1.1311951672203100    3.2154943242945802
     1.7550374932712924    7.2820023561846083    0.1228996278286520
     0.3053712088005958   -0.2359296419095514    7.1792260038646818
   N    C    H    Pd   O    Li
    12    20    40     4     4     1
Direct
  0.5650657173359337  0.1661786729517613  0.8385477238404402
  0.5500039200229330  0.7972593024777404  0.2428869914946334
  0.5631672185722677  0.1676136103280051  0.2343992353088196
  0.5576385705484810  0.7895524920695079  0.8453243773259439
  0.9513689483530328  0.8897812891297072  0.8740154118055379
  0.9355842506739924 -0.0063154833989386  0.3530507143640997
  0.9174158982478244  0.4709550362240324  0.3663299818531607
  0.0105331533924752  0.2281360318259421  0.8947637271879304
  0.2483217125549629  0.1866017294206355  0.9324397739005368
  0.7599065124074276  0.9965012130696231  0.8395083757478476
  0.7380915038750673  0.5570987101026660  0.2004702378823452
  0.3789883652035486  0.6474409173635223  0.9422780197456174
  0.5656537113754458  0.2808038460875050  0.7284038394708829
  0.5518445447645290  0.6803370870932205  0.3516188241911837
  0.5630438444002813  0.2835806165432163  0.3444421157023463
  0.5588037624430220  0.6728464702597259  0.7343676032433715
  0.9192214510752016  0.8458148578315021  0.7960493803778471
  0.8915342258368848  0.1029547638411523  0.3862221658772529
  0.8932687701847711  0.5610117523135195  0.5064865868897079
  0.0294500676343670  0.1332362684726280  0.7563338665702330
  0.4569954698287721  0.5267320065298741  0.1217686050336837
  0.7263963213113276  0.9795882383664807  1.0074679489481888
  0.7661994200593755  0.4569959578346995  0.0396497596728978
  0.3247758542528110  0.7380856115532343  0.9457665230245449
  0.1970956045538644  0.2798548788827729  0.8645719324388714
  0.7339554040756562  1.0300083094969354  0.6695098109083548
  0.7659042807870874  0.5929185635252173  0.3513979388407238
  0.4159924932380296  0.5613875045175891  0.7678710490127124
  0.2993440326001965  0.2007238484427720  0.8579836459389258
  0.8125551774306224  0.0283924005165648  0.8405055557644382
  0.6782497295732389  0.6392931371201023  0.2307991199395021
  0.4021358353914186  0.6557395371522287  0.1186676864355391
  0.1863014674260208  0.1882525915188931  0.7660307240532490
  0.7092907784045365  0.1760756643823178  0.6703638936883847
  0.7665118353149054  0.9971338447270724  0.5431563091399809
  0.2019790825998690  0.4054834209220009  0.7949259516458199
  0.7557110215708767  0.5186392035996454  0.4784121864431513
  0.4499035176872755  0.6275591014235651  0.7316871489963306
  0.4351799931846014  0.4122236686356106  0.7809422316930605
  0.7520582538060256  0.7429856729566009  0.3887773353357037
  0.0936451971359257  0.2711000501240227  0.4102660537500940
  0.8602750891913914  0.8476582840672973  0.2353292238532378
  0.8629764521990876  0.5850821047968989  0.0011148957470433
  0.0408483864795072  0.0386490561226783  0.6335515639072707
  0.6336025193772162  0.3537221479787153  0.9925480619566520
  0.8456404384580936  0.3471210556686425  0.4277899922095968
  0.3292523733701153  0.0209023609570276  0.3454391225414356
  0.6681183583810971  0.7835685344306678  0.2867783813783458
  0.1176751991630184  0.2982020137330003  0.4396877691266137
  0.8360241084739845  0.6627326004940953  0.0163030347690861
  0.8308849185630224  0.9044134551503960  0.2329427790194543
  0.1517596973572252  0.5872011159225051  0.1459166303337582
  0.6842474325515931  0.6680511108136015  0.7543698165836781
  0.3530277676563114  0.0263808332671793  0.3933590934972406
  0.2471990547962721  0.0818088591010978  0.0238237739592423
  0.6603081195652827  0.3788241799177952  0.9602861106635900
  0.3044566499256660  0.2952998406484750  0.7462942119549010
  0.8188704778710205  0.1399152130908272  0.7499522012277873
  0.8187752189578996  0.0494371652420741  0.9845552367285095
  0.3352895688668975  0.1189715433518934  0.9146081099831220
  0.6573137176349688  0.5614599664313927  0.3340327658383084
  0.3700672381367658  0.6340046846326651  0.2343855359220594
  0.4037924980711906  0.8003101695071747  0.1426391677796152
  0.6632431604255696  0.6345801702746304  0.0974057783114547
  0.1614865289226650  0.3226903744054520 -0.0178712047841656
  0.7067464561495814  0.9390296420786987  0.6661277515354191
  0.8110500458774271  0.5568421851548349  0.3000444566541248
  0.3918894014952597  0.5796873057179989  0.6522946418255597
  0.4996685895265693  0.5365062031662896  0.0974227752510543
  0.6859326292453166  0.9605384819475694  0.9853166249095298
  0.8109824953563800  0.3938376607607463  0.0445489296330671
  0.3114697102492909  0.7268827933926904  0.8073743669571870
  0.5589673121265059  0.9805349348828380  0.0402078158816255
  0.9672992133593519  0.3600378899833378  0.1248710552174535
  0.5605845139105649  0.4789491589692540  0.5389605738356649
  0.8592136353377235  0.7786976756191439  0.7051082103788938
  0.8422038533474552  0.2176513702863940  0.4200596735311267
  0.7389917464226894  0.9852660709488726  0.1649392416086763
  0.7458909900296414  0.4350215903800987  0.8982390113362346
  0.2920054006198766  0.8270328106794125  0.0860068403496100
  0.9669799942513707  1.0204494085584424  0.0810114731414945
 
             NaN             NaN             NaN
             NaN             NaN             NaN
             NaN             NaN             NaN
             NaN             NaN             NaN
             NaN             NaN             NaN
             NaN             NaN             NaN
             NaN             NaN             NaN
             NaN             NaN             NaN
             NaN             NaN             NaN
             NaN             NaN             NaN
             NaN             NaN             NaN
             NaN             NaN             NaN
             NaN             NaN             NaN
             NaN             NaN             NaN
             NaN             NaN             NaN
             NaN             NaN             NaN
             NaN             NaN             NaN
             NaN             NaN             NaN
             NaN             NaN             NaN
             NaN             NaN             NaN
             NaN             NaN             NaN
             NaN             NaN             NaN
             NaN             NaN             NaN
             NaN             NaN             NaN
             NaN             NaN             NaN
             NaN             NaN             NaN
             NaN             NaN             NaN
             NaN             NaN             NaN
             NaN             NaN             NaN
             NaN             NaN             NaN
             NaN             NaN             NaN
             NaN             NaN             NaN
             NaN             NaN             NaN
             NaN             NaN             NaN
             NaN             NaN             NaN
             NaN             NaN             NaN
             NaN             NaN             NaN
             NaN             NaN             NaN
             NaN             NaN             NaN
             NaN             NaN             NaN
             NaN             NaN             NaN
             NaN             NaN             NaN
             NaN             NaN             NaN
             NaN             NaN             NaN
             NaN             NaN             NaN
             NaN             NaN             NaN
             NaN             NaN             NaN
             NaN             NaN             NaN
             NaN             NaN             NaN
             NaN             NaN             NaN
             NaN             NaN             NaN
             NaN             NaN             NaN
             NaN             NaN             NaN
             NaN             NaN             NaN
             NaN             NaN             NaN
             NaN             NaN             NaN
             NaN             NaN             NaN
             NaN             NaN             NaN
             NaN             NaN             NaN
             NaN             NaN             NaN
             NaN             NaN             NaN
             NaN             NaN             NaN
             NaN             NaN             NaN
             NaN             NaN             NaN
             NaN             NaN             NaN
             NaN             NaN             NaN
             NaN             NaN             NaN
             NaN             NaN             NaN
             NaN             NaN             NaN
             NaN             NaN             NaN
             NaN             NaN             NaN
             NaN             NaN             NaN
             NaN             NaN             NaN
             NaN             NaN             NaN
             NaN             NaN             NaN
             NaN             NaN             NaN
             NaN             NaN             NaN
             NaN             NaN             NaN
             NaN             NaN             NaN
             NaN             NaN             NaN
             NaN             NaN             NaN
