N    C    H    Co   Zn   O    Li
   1.00000000000000     
  19.5200753324883003   0.7683767337915900  -0.3285089161277180
   0.3569545065209280   7.8993224364705599  -0.9236898338150410
  -2.5904933889946502  -0.9823107997495880   7.0078891290118897
N    C    H    Co   Zn   O    Li
12  20  40  2  2  4  1  
Direct
  0.4855393951022386  0.1901876514348960  0.7799733926274766  
  0.5187261998086118  0.9129225655052452  0.1349172839413918  
  0.5027792977022238  0.2393759772432051  0.1530354223755559  
  0.4925882386832613  0.8431243118261795  0.7621395867413580  
  0.0199473765239807  0.6819696231868511  0.1810955142393297  
  0.9910653194836156  0.4205962532998917  0.4800155404498784  
  0.0071097282624564  0.7639797298105799  0.5152946800271314  
  0.0130772455002069  0.3662754064047405  0.1455228836346599  
  0.2810030962310848  0.0426124862271285  0.0147210455846943  
  0.7145686668320469  0.9941319272798198  0.8744959618287939  
  0.7306096325774766  0.5145993607138303  0.0760928671348872  
  0.2410595629531316  0.4339658255766004  0.8144734244664290  
  0.4852079399971739  0.2903994604155593  0.6898504429110445  
  0.5303046466449849  0.8327037408924980  0.2548476498758810  
  0.4999677928042582  0.3421389727579947  0.2913941649697037  
  0.4916525511736294  0.7027090587823093  0.6655554548312527  
  0.0451566869540525  0.7550341117851938  0.0961147339234569  
  0.9936563269305776  0.3182494819005141  0.5721547143064168  
  0.0037410993073563  0.9066468942237260  0.6089392029607501  
  0.0097035490547555  0.2641718082995982  0.9990559873750948  
  0.3482559575375092  0.0014936575595594  0.0032591273546166  
  0.6422114216282759  0.0163380550276753  0.8588542773243765  
  0.7838592750827448  0.4705771487186556  0.9916905648632108  
  0.1842004037585424  0.5417399856369797  0.7667456102173961  
  0.2596166556889597  0.0011327228713197  0.1645489258087883  
  0.7319605286578190  0.9465458934447938  0.6944696883612109  
  0.7422008711059104  0.4706900757894378  0.2623796715321436  
  0.2959293474356343  0.4100577503136745  0.7213732663726038  
  0.2323429855687929  0.1463925771762747  0.8854038455138815  
  0.7703495297891277  0.0140564824956616  0.0515001460018881  
  0.6677239252491991  0.5968291311715427  0.9900665044495019  
  0.2523788450970856  0.3423279142473969  0.9679203411233952  
  0.2116021510831348  0.9134161331272596  0.0976051822431953  
  0.7634720131242038  0.0517680068286320  0.6893023892443788  
  0.7638854800302749  0.8262348124145208  0.6921490345123427  
  0.2457061134183679  0.1192707936685710  0.2572122543677406  
  0.7009374626307330  0.3751697088980916  0.2416326244101193  
  0.3491669889566174  0.4644171724226617  0.8281242550820735  
  0.3037928612531215  0.2715714377756369  0.6637622336768626  
  0.7380977662942596  0.5875989803134116  0.3716632505459473  
  0.2402969989190274  0.7828709966962359  0.4656018573522305  
  0.8295170593650096  0.2539945386827356  0.6186351256620973  
  0.8729180218513364  0.6286117258240230  0.7410980437668322  
  0.1013017913508457  0.8066988743127697  0.1388094099995427  
  0.6366709409601303  0.2406837661147990  0.5376153821719709  
  0.4122679469949085  0.6687969825887869  0.1946507270335132  
  0.3495041840454913  0.4382265103179624  0.4074936717670105  
  0.6152436119020528  0.6394458025055958  0.4766806373437857  
  0.1467518475798887  0.2746043906314353  0.3648221473008846  
  0.8844353039055802  0.6766526219155682  0.6822353625733348  
  0.8398775824641876  0.1769458275610725  0.5516780415708259  
  0.2762479684976661  0.8209184937293194  0.5427540126736450  
  0.6454613803669988  0.5905402845586644  0.5386531901275510  
  0.3518043431910938  0.5343713681651158  0.4194116378773192  
  0.3726194317567154  0.6439932353608443  0.1663356655703550  
  0.6642305546544696  0.3062462610653319  0.6142763101215249  
  0.2380317420701821  0.1014125349165874  0.7413992872503735  
  0.7557445392168606  0.0442531209232626  0.1816827632616496  
  0.8260651305826516  0.9895136846962668  0.0532851593333381  
  0.1752388217631841  0.1231612322130199  0.8673753667755388  
  0.6626888538131392  0.6354786551828047  0.8577380753777711  
  0.2196879403704509  0.4076156100001436  0.0565491013370207  
  0.3110368046254426  0.3539848724494120  0.0600072269662620  
  0.6293758904169918  0.6361655380133037  0.0670352234250316  
  0.3055609572425611  0.9373573176774480  0.2582157284236148  
  0.6807688088906773  0.9263503465813088  0.5669755346983916  
  0.7971345248070794  0.4153246083660712  0.3153398343466287  
  0.2777484904023929  0.4770365272137507  0.6017758516753279  
  0.3845450175631850  0.9351307304142512  0.1152762762485099  
  0.6032215789990021  0.9916317383456860  0.7064419412045541  
  0.8327004839509822  0.4102532198664602  0.0831127922443062  
  0.1808690330558869  0.5983689051713735  0.6439657696448018  
  0.5007513929834564  0.0477327870843395  0.9522593692530912  
  0.0058768291179882  0.5611415560926658  0.3338016666863911  
  0.4949670209881551  0.4572699555559824  0.5470225800742501  
  0.0001060355243875  0.1519395147499703  0.7306093723672070  
  0.3685899707318538  0.0368630569488442  0.8781943540611306  
  0.6229405091420838  0.0588812863781490  0.0053033529816219  
  0.7777153599642124  0.4966502337883957  0.8311220155356076  
  0.1379868035875137  0.5773901391923689  0.8496798786485487  
  0.0373636088379486  0.6355379362173145  0.7620870782374800  
