H    Li   C    N    O    Pt   Ni        
   1.00000000000000     
     7.4067262430684861   -1.1116045144761195    0.2447958081119986
    -0.4192951830812282    7.4161751189410872    0.0304808513000290
    -0.1350549253203361   -0.0073676502980093    6.5748971322153178
   H    Li   C    N    O    Pt   Ni
    14     1    10     6     2     1     1
Selective dynamics
Direct
  0.6616186544275536  0.9201287857845623  0.5750010253592731   T   T   T
  0.1917218410588457  0.0407387036360504  0.3792771525062072   T   T   T
  0.3368190517598712  0.2610430932794777  0.4058193744629925   T   T   T
  0.2663499205922302  0.1215363217615025  0.6259853805999239   T   T   T
  0.5785061075014469  0.1453067785735687  0.1660413422957392   T   T   T
  0.4217580896976462  0.9344973707780782  0.1483245195317448   T   T   T
  0.6458618705844305 -0.0569575083001073  0.2504271640059398   T   T   T
  0.2667369660871055  0.6609876342057381  0.6401363814289468   T   T   T
  0.5406219993010729  0.2889101394636375  0.8381499192102351   T   T   T
  0.7083218499708904  0.4984037426470587  0.8720190874909638   T   T   T
  0.6441171205106428  0.4191229779706999  0.6251398843055749   T   T   T
  0.4892482947497268  0.6852079104116162  0.0495578712150120   T   T   T
  0.3506299214492747  0.4543157757709473  0.0782240277898303   T   T   T
  0.2615373828462403  0.6356226426399324  0.9669848994049061   T   T   T
  0.6301282478160535  0.5707929319694227  0.2698170884329837   T   T   T
  0.9060058626270047  0.8135204260441296  0.0605046065864114   T   T   T
  0.9389009676049520  0.1836581570679253  0.6877238872493953   T   T   T
 -0.0241092785978892  0.8247608169452197  0.6858573076023987   T   T   T
  0.9857428402221624  0.1907690711760528  0.0618952741783562   T   T   T
  0.5438622473009441 -0.0173773239269696  0.6137974150521736   T   T   T
  0.3056711205142116  0.1196847531389199  0.4655463158322353   T   T   T
  0.5301200244769763  0.0122104800937806  0.2437547762607960   T   T   T
  0.3802365487732179  0.5909732223967319  0.6132154629349984   T   T   T
  0.5931906911314772  0.4293055523512140  0.7803013098992915   T   T   T
  0.3842572075378798  0.5778695664267069  0.9805276715562738   T   T   T
  0.8971237260252491  0.6833973555376168  0.1688844585891604   T   T   T
  0.9453645811066587  0.3094301395811693  0.5769786535881624   T   T   T
  0.9731137268858659  0.7003823163231431  0.5744403055192566   T   T   T
  0.9799303559558299  0.3168446205202937  0.1675550833447304   T   T   T
  0.4630321998467700  0.0351780061540389  0.4480428760347301   T   T   T
  0.4493220953368264  0.5336828164400664  0.7816234334690237   T   T   T
  0.4962163203947398  0.0013274312521839  0.7945147195009600   T   T   T
  0.4346792813106747  0.5681072390192339  0.4339123396206257   T   T   T
  0.9507532193722160  0.5029295062276212  0.3703230889126596   T   T   T
  0.9538839438211969  0.0016955466387370  0.8760138962280958   T   T   T
 
  0.00000000E+00  0.00000000E+00  0.00000000E+00
  0.00000000E+00  0.00000000E+00  0.00000000E+00
  0.00000000E+00  0.00000000E+00  0.00000000E+00
  0.00000000E+00  0.00000000E+00  0.00000000E+00
  0.00000000E+00  0.00000000E+00  0.00000000E+00
  0.00000000E+00  0.00000000E+00  0.00000000E+00
  0.00000000E+00  0.00000000E+00  0.00000000E+00
  0.00000000E+00  0.00000000E+00  0.00000000E+00
  0.00000000E+00  0.00000000E+00  0.00000000E+00
  0.00000000E+00  0.00000000E+00  0.00000000E+00
  0.00000000E+00  0.00000000E+00  0.00000000E+00
  0.00000000E+00  0.00000000E+00  0.00000000E+00
  0.00000000E+00  0.00000000E+00  0.00000000E+00
  0.00000000E+00  0.00000000E+00  0.00000000E+00
  0.00000000E+00  0.00000000E+00  0.00000000E+00
  0.00000000E+00  0.00000000E+00  0.00000000E+00
  0.00000000E+00  0.00000000E+00  0.00000000E+00
  0.00000000E+00  0.00000000E+00  0.00000000E+00
  0.00000000E+00  0.00000000E+00  0.00000000E+00
  0.00000000E+00  0.00000000E+00  0.00000000E+00
  0.00000000E+00  0.00000000E+00  0.00000000E+00
  0.00000000E+00  0.00000000E+00  0.00000000E+00
  0.00000000E+00  0.00000000E+00  0.00000000E+00
  0.00000000E+00  0.00000000E+00  0.00000000E+00
  0.00000000E+00  0.00000000E+00  0.00000000E+00
  0.00000000E+00  0.00000000E+00  0.00000000E+00
  0.00000000E+00  0.00000000E+00  0.00000000E+00
  0.00000000E+00  0.00000000E+00  0.00000000E+00
  0.00000000E+00  0.00000000E+00  0.00000000E+00
  0.00000000E+00  0.00000000E+00  0.00000000E+00
  0.00000000E+00  0.00000000E+00  0.00000000E+00
  0.00000000E+00  0.00000000E+00  0.00000000E+00
  0.00000000E+00  0.00000000E+00  0.00000000E+00
  0.00000000E+00  0.00000000E+00  0.00000000E+00
  0.00000000E+00  0.00000000E+00  0.00000000E+00
