N    C    H    Ag   Be   O    Li        
   1.00000000000000     
    20.6279117625592932   -0.1090215770180730    0.9392458157747650
     0.3204482452145209    8.8545038569655556    0.9292868332985370
    -0.9472355248312929    0.8311610402032072    6.2307176291839896
   N    C    H    Ag   Be   O    Li
    12    20    40     2     2     4     1
Direct
  0.3966421646236666  0.1870446842823688  0.6486920027822749
  0.4107768155515066  0.6757006715677051  0.1470755458063826
  0.6058570511240745  0.4853090292336377  0.6805894231476063
  0.6349630679468800  0.8313294646168486  0.9004290295358131
 -0.0241661173523508  0.5846362436155286  0.7681658777291744
  0.9282501827366018  0.0622494563249171  0.1936519069571309
  0.1146844749118897  0.7732981143310189  0.3601619903210391
  0.0459920758200838  0.1500731751632582  0.7926049231175070
  0.2694107297607650  0.0400131945018458  0.2886996923226341
  0.7047888873066800  1.0103381307140751  0.7103609785427760
  0.8087697570281921  0.5042246671328819  0.3460109730303736
  0.2169247344882937  0.5037975584897479  0.6473553815559603
  0.4255789692520235  0.2980455480649977  0.6158719358804829
  0.4343570467621867  0.5957100961018243  0.3096394628691987
  0.5506012512816739  0.4744136561414564  0.6377111355991844
  0.6034214445765154  0.7250989210842550  0.9593019346864289
  0.9843749066483788  0.7151781421957708  0.7113592035604916
  0.9626760125698084 -0.0065582380512905  0.3456688916466163
  0.0914710300865782  0.8193239103468315  0.4964618612298093
  0.0373265395771639  0.0390069871165994  0.7289242010201268
  0.3051064230816692  0.1000346663087471  0.1197769305507537
  0.6625159428011090  0.9827401737629458  0.9157162357896703
  0.8635276239749324  0.5614444906699652  0.2421019457276435
  0.1622528931108130  0.5111163361239051  0.7482858341892155
  0.3008700621985680 -0.0674780486717430  0.4842548149154492
  0.6697342747823689  0.0334349023113690  0.4951795802117858
  0.8182462445263020  0.3778277436559179  0.5446121830909911
  0.2152615369895782  0.4332197422092147  0.4599840939374704
  0.2033059070007719  0.0656796181678280  0.2647875674074873
  0.7661634651209188  1.0042908156221944  0.7608596357049422
  0.7492249280845610  0.5631516977978940  0.2548257017659566
  0.2735730338484493  0.5634467650450268  0.7131499836659864
  0.2646333014201153  0.8575472820791613  0.5590836237449806
  0.6958936236513483  0.1034644635058863  0.3718399256282446
  0.6636313321879433  0.9215011264972117  0.4542697990352144
  0.3238044445908422 -0.0001844035267079  0.5987741353304249
  0.7730280964069062  0.3640165783316156  0.6215064554046142
  0.2095431566615610  0.5204243849961291  0.3055598371395020
  0.2614894304992280  0.3664346074846724  0.4706067091374524
  0.8566811124968549  0.3983303688288709  0.6661110487890189
  0.1374001313890754  0.8549359472769570  0.7323136899252916
  0.8175919406097443  0.1649825231418701  0.2181995016214071
  0.8289329583782634  0.8852909777867722  0.2816160407024556
  0.0878713539429915  0.3326732253195641  0.1609542054149297
  0.6991806515356773  0.3628546154721770  0.9177391245701951
  0.2880993478901743  0.7661868815822692  0.1428206464698406
  0.3972652520325918  0.3284903993014124  0.1539574750550485
  0.7265145752753126  0.6814961511890195  0.6323400485922128
  0.0733160994683145  0.4140800097597496  0.1359816698218829
  0.7930631840443825  0.8729085853336458  0.2837025152864207
  0.7846062086896781  0.1962457186561034  0.2335330296860841
  0.1613328160156080  0.8778188767298560  0.8205908587991273
  0.7488130835017929  0.7287315128408007  0.5615590455897168
  0.3840801134661441  0.3476532888923111  0.0359412037567355
  0.2594631847655306  0.8129607155603399  0.0722470716381087
  0.7186903078901407  0.2901616905842833  0.9776407992787347
  0.1803441200533436  0.1129136483143646  0.1000667546405321
  0.7809848569110400  0.9827222302126063  0.9372440082716376
  0.7987021709543709  1.0172375432784699  0.6342097600477365
  0.1785280359175087  0.0275244551947638  0.4073320466549266
  0.7471812282136846  0.6518031087210455  0.1046866049994208
  0.3170702312529138  0.5368818586940420  0.6438067042415604
  0.2746521044804808  0.6058462766680817 -0.1399090224388784
  0.7073093231071338  0.5316852083868444  0.3413468925616113
  0.3381009441007012 -0.1405802959954490  0.4377140321047088
  0.6214504460072461  0.0882591573176152  0.4965291348928250
  0.8319558730600419  0.2699369793240342  0.5012796161223839
  0.1753323440473850  0.3558647571406474  0.4595079901154584
  0.3579289976293050  0.0666477728058291  0.1591544678398046
  0.6212682206838291  1.0700194493606421  0.8492134858979153
  0.9102071424482309  0.5134710762099561  0.3384058411429197
  0.1198222198168461  0.4626733715078478  0.6721086562475512
  0.3766852584566415  0.8452545976784444  0.8648336255926845
  1.0059525499498683  0.3574603771044910  0.8164849778326360
  0.4714902127312285  0.4574428287165859  0.5405580158512370
  0.0141804438754485  0.8964032070963343  0.5832899335617174
  0.2799567674238098  0.1831359269059087  0.9458652158710628
  0.6962465813806175  0.9819820086687516  0.0929578676098193
  0.8588711938544352  0.6557404512309168  1.0675595422414690
  0.1597784625016350  0.5711803266406340 -0.0908000783673113
  0.1406427068185452  0.7261018280784020  0.0769763444927515
 
             NaN             NaN             NaN
             NaN             NaN             NaN
             NaN             NaN             NaN
             NaN             NaN             NaN
             NaN             NaN             NaN
             NaN             NaN             NaN
             NaN             NaN             NaN
             NaN             NaN             NaN
             NaN             NaN             NaN
             NaN             NaN             NaN
             NaN             NaN             NaN
             NaN             NaN             NaN
             NaN             NaN             NaN
             NaN             NaN             NaN
             NaN             NaN             NaN
             NaN             NaN             NaN
             NaN             NaN             NaN
             NaN             NaN             NaN
             NaN             NaN             NaN
             NaN             NaN             NaN
             NaN             NaN             NaN
             NaN             NaN             NaN
             NaN             NaN             NaN
             NaN             NaN             NaN
             NaN             NaN             NaN
             NaN             NaN             NaN
             NaN             NaN             NaN
             NaN             NaN             NaN
             NaN             NaN             NaN
             NaN             NaN             NaN
             NaN             NaN             NaN
             NaN             NaN             NaN
             NaN             NaN             NaN
             NaN             NaN             NaN
             NaN             NaN             NaN
             NaN             NaN             NaN
             NaN             NaN             NaN
             NaN             NaN             NaN
             NaN             NaN             NaN
             NaN             NaN             NaN
             NaN             NaN             NaN
             NaN             NaN             NaN
             NaN             NaN             NaN
             NaN             NaN             NaN
             NaN             NaN             NaN
             NaN             NaN             NaN
             NaN             NaN             NaN
             NaN             NaN             NaN
             NaN             NaN             NaN
             NaN             NaN             NaN
             NaN             NaN             NaN
             NaN             NaN             NaN
             NaN             NaN             NaN
             NaN             NaN             NaN
             NaN             NaN             NaN
             NaN             NaN             NaN
             NaN             NaN             NaN
             NaN             NaN             NaN
             NaN             NaN             NaN
             NaN             NaN             NaN
             NaN             NaN             NaN
             NaN             NaN             NaN
             NaN             NaN             NaN
             NaN             NaN             NaN
             NaN             NaN             NaN
             NaN             NaN             NaN
             NaN             NaN             NaN
             NaN             NaN             NaN
             NaN             NaN             NaN
             NaN             NaN             NaN
             NaN             NaN             NaN
             NaN             NaN             NaN
             NaN             NaN             NaN
             NaN             NaN             NaN
             NaN             NaN             NaN
             NaN             NaN             NaN
             NaN             NaN             NaN
             NaN             NaN             NaN
             NaN             NaN             NaN
             NaN             NaN             NaN
             NaN             NaN             NaN
