N    C    H    V    Mg   O    Li        
   1.00000000000000     
    17.4418371230435341   -0.3703820035783570    0.7421433351444680
    -0.5316765069138075    7.9367237945248865   -0.0923426296585890
    -0.9444195174307189   -0.0363817728360089    7.3462464292504723
   N    C    H    V    Mg   O    Li
    12    20    40     2     2     4     1
Direct
  0.4941034162369903  0.1606201899595629  0.8015952888614569
  0.5025964003121366  0.8050262453702958  0.2054724332690138
  0.5121961131562141  0.1753385347937170  0.1943305732659497
  0.4805948986742717  0.7900397302464272  0.8363702346957876
  0.0054644886876615  0.7173530345761006  0.8010744190104702
  0.0237838424955567  0.3323382216801303  0.1740672201342041
  0.0193133879721536  0.7132766484285741  0.1797625956966935
  0.9953658358663408  0.3378902799033678  0.7825391399971501
  0.2659796426795201  0.0179585516722220  0.1321767067145124
  0.7323867075967012  0.9731726126085153  0.8694449077750646
  0.7775767020257878  0.5586328916951289  0.0538019962308025
  0.2496502428456570  0.4972335050630221  0.9463639115172556
  0.4924361053587114  0.2739073755499357  0.7001406060325597
  0.5034994876851072  0.6963861252452459  0.3125266619486883
  0.5118294587318781  0.2900723573984231  0.2958554906785191
  0.4727658309759047  0.6469821623821114  0.7614648420951683
  0.0100449717051993  0.8326931215126129  0.7018040480258337
  0.0271134356532747  0.2236528815051283  0.2804101321440303
  0.0131110325309044  0.8243218764721812  0.2821706383403284
  0.9849455487430421  0.2274158354544111  0.6744048744913059
  0.3427035448674740  0.0171291186976213  0.1456288489155426
  0.6603750548623308  1.0203185552222092  0.8668718841414466
  0.8344302081375213  0.4524969917045875  0.0759126777182955
  0.1727376348769320  0.4564525428963830  0.9196966353615056
  0.2267920011884479  0.0506958163192239  0.2927421427719675
  0.7871586719080742  1.0438783905124680  0.7467016943503573
  0.7052812050090942  0.5125900808477243  0.1367072999735824
  0.3012418589898329  0.3907673448722256  0.8597984368124981
  0.2146747955775445  0.9677323064523735  0.9750162509756882
  0.7607271136853948  0.8623865654405672  1.0136830782462682
  0.7867266256332163  0.7005679637937090  0.9488355605545457
  0.2825260496919828  0.6305210522278711  0.0486054656798136
  0.1976629030199494  0.9319038112182565  0.3379533315055006
  0.8360616458344183  0.1167983732232743  0.8231362817395572
  0.8099747612546659  0.9438659112583311  0.6690638897938420
  0.1819446258430970  0.1366379101461569  0.2575228548688460
  0.6589418882384298  0.4703457426537163  0.0325650140657156
  0.3308421171643902  0.4629797431739227  0.7567088293950015
  0.3443787684244448  0.3508979151774527  0.9631244772588122
  0.6871435710025728  0.6198213603316884  0.2110995562302282
  0.1334208730734471  0.5273677714008934  0.4456998457752228
  0.8437458020914769  0.0286538254619305  0.3603578293727967
  0.8618040693729341  0.6489505691581003  0.5086656511509829
  0.1310066381721282  0.1573927365775387  0.5542967326468806
  0.6551449102617624  0.3620466729310172  0.5428099804944347
  0.3189184007712231  0.7772451789345803  0.6029806321959129
  0.3554667465240788  0.3885833362313638  0.4397185373783757
  0.6590894568580463  0.8825310546319164  0.4273128991362510
  0.1348113862375386  0.0900445970225459  0.6252634170078086
  0.8221463824905332  0.6632853311804497  0.4673186590507378
  0.8655978294259655  0.1145171227451350  0.3683159001382020
  0.1710639109226578  0.5540409891197373  0.4993675959069115
  0.6695682281258538  0.8307675523411848  0.5086410563587483
  0.3519841495121983  0.4680536907416311  0.3853245113628213
  0.2847986005038743  0.7380293175634872  0.5437832106373488
  0.6781234049188044  0.4316447864619660  0.5986106523088899
  0.1840906605741506  0.0769080183373999  0.9314117335029781
  0.7143534267227383  0.8422817705740143  0.1040664114147942
  0.8098948647112503  0.9363189248227862  0.0908067353324920
  0.2471551644460403 -0.0518807815897492  0.8601783711567330
  0.8393908693531930  0.7057630557810221  0.8792443721566320
  0.3405169307473821  0.6798416217424377  0.0233014235844181
  0.2460056058306586  0.6955301716803429  0.1319706033819107
  0.4539792150918180  0.5448347042252112  0.8555483945616852
  0.2678475179309924  0.1055898837400058  0.4021856968713167
  0.7585881342935159  0.1274735734937091  0.6507425823590607
  0.7143919943066693  0.4114762480254942  0.2336086383530741
  0.2678846253037606  0.2792179739620806  0.7976153582922577
  0.3721667128257307  0.0480510931793084  0.2807044060934167
  0.6435380404611031  0.1054800142918075  0.7564997615500433
  0.8212801207946554  0.3365711945338322  0.1512217905871465
  0.1530391808295882  0.3388027298585101  0.8471414845770955
  0.4956653274737111  0.9726842548740420  0.9914799550086253
  0.0092129480021023  0.5169545984799828  0.9854363109600207
  0.4947308403662301  0.4905579949783223  0.5087750067900306
  0.0081815169361858  0.0275295639811360  0.4853716795418450
  0.3799959587652608  0.9822562889480868  1.0110621897279575
  0.6147946519252275  0.9724437023963657  0.9823525207757611
  0.8983563278255617  0.4867931057512681  1.0104022101394954
  0.1243791565650590  0.5522009507216401  0.9806140223406802
  0.1176303962181281  0.7933563995197621 -0.0119585625178338
 
             NaN             NaN             NaN
             NaN             NaN             NaN
             NaN             NaN             NaN
             NaN             NaN             NaN
             NaN             NaN             NaN
             NaN             NaN             NaN
             NaN             NaN             NaN
             NaN             NaN             NaN
             NaN             NaN             NaN
             NaN             NaN             NaN
             NaN             NaN             NaN
             NaN             NaN             NaN
             NaN             NaN             NaN
             NaN             NaN             NaN
             NaN             NaN             NaN
             NaN             NaN             NaN
             NaN             NaN             NaN
             NaN             NaN             NaN
             NaN             NaN             NaN
             NaN             NaN             NaN
             NaN             NaN             NaN
             NaN             NaN             NaN
             NaN             NaN             NaN
             NaN             NaN             NaN
             NaN             NaN             NaN
             NaN             NaN             NaN
             NaN             NaN             NaN
             NaN             NaN             NaN
             NaN             NaN             NaN
             NaN             NaN             NaN
             NaN             NaN             NaN
             NaN             NaN             NaN
             NaN             NaN             NaN
             NaN             NaN             NaN
             NaN             NaN             NaN
             NaN             NaN             NaN
             NaN             NaN             NaN
             NaN             NaN             NaN
             NaN             NaN             NaN
             NaN             NaN             NaN
             NaN             NaN             NaN
             NaN             NaN             NaN
             NaN             NaN             NaN
             NaN             NaN             NaN
             NaN             NaN             NaN
             NaN             NaN             NaN
             NaN             NaN             NaN
             NaN             NaN             NaN
             NaN             NaN             NaN
             NaN             NaN             NaN
             NaN             NaN             NaN
             NaN             NaN             NaN
             NaN             NaN             NaN
             NaN             NaN             NaN
             NaN             NaN             NaN
             NaN             NaN             NaN
             NaN             NaN             NaN
             NaN             NaN             NaN
             NaN             NaN             NaN
             NaN             NaN             NaN
             NaN             NaN             NaN
             NaN             NaN             NaN
             NaN             NaN             NaN
             NaN             NaN             NaN
             NaN             NaN             NaN
             NaN             NaN             NaN
             NaN             NaN             NaN
             NaN             NaN             NaN
             NaN             NaN             NaN
             NaN             NaN             NaN
             NaN             NaN             NaN
             NaN             NaN             NaN
             NaN             NaN             NaN
             NaN             NaN             NaN
             NaN             NaN             NaN
             NaN             NaN             NaN
             NaN             NaN             NaN
             NaN             NaN             NaN
             NaN             NaN             NaN
             NaN             NaN             NaN
             NaN             NaN             NaN
