H    Li   C    N    O    Cu   Ni        
   1.00000000000000     
     7.9345814428455874   -0.8247444984099860    0.2471420047334184
    -0.2432688477720245    7.0991234075893495    0.0413631518205639
    -0.1459080873128598   -0.0065534249667874    6.4657718360270904
   H    Li   C    N    O    Cu   Ni
    14     1    10     6     2     1     1
Selective dynamics
Direct
  0.6725420760665010  0.9449372055520914  0.6071723777704121   T   T   T
  0.2160914415300331 -0.0042378039034584  0.3711111119736766   T   T   T
  0.3181801063310924  0.2337898691861303  0.3725683643692704   T   T   T
  0.2649081459065299  0.1103084107022346  0.6133021258047724   T   T   T
  0.5514690564375829  0.1408916970967166  0.1609815412107969   T   T   T
  0.4819295079515721  0.8962513276789308  0.1638442397091690   T   T   T
  0.6844717282950562 -0.0086774852569918  0.2756146601798503   T   T   T
  0.2472115398334062  0.5356978569879687  0.5413568522861081   T   T   T
  0.6069099682599529  0.4494139880464543  0.9620081810587738   T   T   T
  0.6589409550191747  0.6842034065719051  0.8617109632278322   T   T   T
  0.6787613215299254  0.4815864152967423  0.7021666642384877   T   T   T
  0.3226783317395134  0.6873637496337278  0.9910910881134710   T   T   T
  0.3306784528043040  0.4428511432986735  0.0497983105198221   T   T   T
  0.1783837686981235  0.5078385929339998  0.8694183468930000   T   T   T
  0.6943829482793992  0.6844774034378551  0.3610110336242460   T   T   T
  0.9265553131135849  0.7868345998517157  0.0628118200811680   T   T   T
  0.9258858880519341  0.1667705195650362  0.6975963720987628   T   T   T
  0.9891744242454991  0.8072035053449113  0.6799384893517261   T   T   T
  0.0051861532392694  0.1673184974334517  0.0733826361707014   T   T   T
  0.5478138587130114 -0.0059039540906305  0.6347035550312615   T   T   T
  0.3080799073312474  0.0965916298173592  0.4536623190541763   T   T   T
  0.5510020736766236  0.0113829640131428  0.2560031088905428   T   T   T
  0.3842801960322231  0.5429021499952036  0.5637871555707589   T   T   T
  0.6037188994302417  0.5387083352312010  0.8233621016302045   T   T   T
  0.3073392816742310  0.5429865817231089  0.9270216951100816   T   T   T
  0.8848358589062825  0.6538010545203123  0.1721323978912243   T   T   T
  0.8895775197923044  0.2844889210224411  0.5837070162702435   T   T   T
  0.0124478713448607  0.6877330973624158  0.5613636173285970   T   T   T
  0.0329962314228830  0.2954314828724973  0.1884051231413474   T   T   T
  0.4719018453178399  0.0303167627689140  0.4560464097609179   T   T   T
  0.4294942512116353  0.5337072687332612  0.7606982351152927   T   T   T
  0.4933670786646204  0.0128594701118059  0.8132862263117582   T   T   T
  0.4843934833016832  0.5611949431241039  0.4107846293625466   T   T   T
  0.9600689322300187  0.4755056454681453  0.3745068229355270   T   T   T
  0.9656165836178319  0.9814777478686328  0.8799624079134812   T   T   T
 
  0.00000000E+00  0.00000000E+00  0.00000000E+00
  0.00000000E+00  0.00000000E+00  0.00000000E+00
  0.00000000E+00  0.00000000E+00  0.00000000E+00
  0.00000000E+00  0.00000000E+00  0.00000000E+00
  0.00000000E+00  0.00000000E+00  0.00000000E+00
  0.00000000E+00  0.00000000E+00  0.00000000E+00
  0.00000000E+00  0.00000000E+00  0.00000000E+00
  0.00000000E+00  0.00000000E+00  0.00000000E+00
  0.00000000E+00  0.00000000E+00  0.00000000E+00
  0.00000000E+00  0.00000000E+00  0.00000000E+00
  0.00000000E+00  0.00000000E+00  0.00000000E+00
  0.00000000E+00  0.00000000E+00  0.00000000E+00
  0.00000000E+00  0.00000000E+00  0.00000000E+00
  0.00000000E+00  0.00000000E+00  0.00000000E+00
  0.00000000E+00  0.00000000E+00  0.00000000E+00
  0.00000000E+00  0.00000000E+00  0.00000000E+00
  0.00000000E+00  0.00000000E+00  0.00000000E+00
  0.00000000E+00  0.00000000E+00  0.00000000E+00
  0.00000000E+00  0.00000000E+00  0.00000000E+00
  0.00000000E+00  0.00000000E+00  0.00000000E+00
  0.00000000E+00  0.00000000E+00  0.00000000E+00
  0.00000000E+00  0.00000000E+00  0.00000000E+00
  0.00000000E+00  0.00000000E+00  0.00000000E+00
  0.00000000E+00  0.00000000E+00  0.00000000E+00
  0.00000000E+00  0.00000000E+00  0.00000000E+00
  0.00000000E+00  0.00000000E+00  0.00000000E+00
  0.00000000E+00  0.00000000E+00  0.00000000E+00
  0.00000000E+00  0.00000000E+00  0.00000000E+00
  0.00000000E+00  0.00000000E+00  0.00000000E+00
  0.00000000E+00  0.00000000E+00  0.00000000E+00
  0.00000000E+00  0.00000000E+00  0.00000000E+00
  0.00000000E+00  0.00000000E+00  0.00000000E+00
  0.00000000E+00  0.00000000E+00  0.00000000E+00
  0.00000000E+00  0.00000000E+00  0.00000000E+00
  0.00000000E+00  0.00000000E+00  0.00000000E+00
