N    C    H    Ni   Pd   O    Li        
   1.00000000000000     
    18.8254461188200999   -0.1628257795909780    1.6535724618689001
     0.6997940116916592    8.3414460519148097    0.3020679002537850
    -2.1040983008405294    1.2366410833956858    6.3929272364107099
   N    C    H    Ni   Pd   O    Li
    12    20    40     2     2     4     1
Direct
  0.4712904302725902  0.1800798607187917  0.7616171633773560
  0.5149704096343278  0.7860473999482648  0.1458459406753419
  0.5380285129914847  0.1669442301153400  0.1802567250720917
  0.4315113857587806  0.7056529661156600  0.6222879523412405
  0.9785556775131529  0.6088546308432746  0.7736999155166842
  0.9884727514007108  0.2489464607609237  0.1537133451586138
  0.0348089462237831  0.7231800044481441  0.2188074195434366
  0.9701072703932896  0.2421674518957553  0.7423634864836139
  0.3222112747298468  0.0834545899895651  0.3045481948693045
  0.6750297148627832 -0.0996668419062035  0.7096526997623480
  0.8156912809072707  0.6162223682169633  0.2327947081279413
  0.2686743124766011  0.5013314695295531  0.8693419475243557
  0.4753648114330745  0.2765210485458208  0.6175471222842952
  0.5099463632755565  0.6464889795109648  0.2163992262957068
  0.5254445537062465  0.2800815683881678  0.2576108856893988
  0.4546151400789040  0.6060123416198719  0.5396184706700624
  0.9887591695317418  0.7433424093464166  0.6983504767360484
  1.0005823724295084  0.1379922992561891  0.2949875051573504
  0.0222152761312399  0.8077100357222494  0.3322637086147593
  0.9806711554809265  0.1209007796025768  0.6769945477654169
  0.3855942290972105  0.0204706477406494  0.2457833897623202
  0.6099054385725335 -0.0573455380055567  0.7519825447222521
  0.8700012184552247  0.5352399939270539  0.1761466281292406
  0.1987007345783948  0.4683836634604136  0.8732104146190546
  0.3115594035470859  0.9997847086095917  0.5052699212188180
  0.6713070205368371 -0.0333441604010187  0.4846139080119879
  0.8174900859530890  0.5640566680065886  0.4574033080270613
  0.3127268795557117  0.3852664021342581  0.7886614697051321
  0.2752773721346403  0.2108342205395397  0.2035188304806607
  0.7401880097242621 -0.1706283830502033  0.8665214675169914
  0.7443631867754091  0.6963147050845996  0.0743683673824972
  0.3005495568650676  0.6319168771814523  0.9411946647811966
  0.2655527814788072  0.9304392857782529  0.4688666497214755
  0.6895622555021463  0.0904271214368623  0.4524331665968520
  0.6995642997374614  0.8865498638872971  0.4064589726894423
  0.2972625563566469  0.0954153321168952  0.5881094778417205
  0.7728281524945222  0.4949445250436501  0.4884826617259069
  0.3307906590968417  0.4478990481844584  0.6542167154995548
  0.3605495091943154  0.3259122011030786  0.9115236953268496
  0.8196060659765352  0.6661230781036235  0.5430720113904219
  0.1077499400131308  1.0120752972038454  0.6758292487812022
  0.7723379780290126  0.1612555304979934  0.0489520499052998
  0.8677714812552738  0.9573576190582126  0.2630265611182147
  0.1576359743754264  0.3629187054117456  0.3394267307528310
  0.6426725610998486  0.3835933268094897  0.9174903026361509
  0.1852993199583580  0.6005193557751070  0.4059890231915073
  0.3595147724538002  0.4664888013213413  0.3287370343468831
  0.6196680972859632  0.5924614197808376  0.5439945228572448
  0.1201462934688095  0.3348619305007847  0.3309267941241522
  0.8384287941726843  0.9262760854641149  0.1895319275327095
  0.7335229391244263  0.1965929077896993  0.0347027243703349
  0.1322707324702347  0.9346649286296331  0.7431393952870331
  0.6550547102621479  0.5891365315740358  0.6219067272760925
  0.3211349374313638  0.4432672118555879  0.3057925222302017
  0.1454056784209623  0.6306305083709383  0.3651178026493063
  0.6805020299035095  0.3553525701908122  0.9118208783813208
  0.1872392231115126 -0.0380767679682445  1.1747613697978161
  0.7878050168574985 -0.1165328370846318 -0.1642610541968856
  0.8265875036072051  0.0122678657905110  0.4908605760850888
  0.2114994745637517 -0.0441065914182037  1.0966243554207322
  0.7098064774110182  0.7406777778572843  0.1685319529209443
  0.3597629464163738  0.6107600152212240  0.9807775810336091
  0.2716728069052557  0.6849750158089581  0.0432844096270434
  0.7204102735983566  0.5864717061664362  1.0287101136939132
  0.3614266314559598  0.9190048263263455  0.5896096257530161
  0.6139247862158419 -0.0116590133398916  0.4008179552470295
  0.8678073947479777  0.4777898349898257  0.5313573597865180
  0.2816120847425403  0.2849705412943422  0.7422313119267835
  0.4218180617335631  0.9259113195052124  0.3700935200626728
  0.5631951041516955 -0.0191714193118773  0.6136617143491143
  0.9150260934529466  0.4689108324026117  0.3090442153375708
  0.1814392083180701  0.3569646885455824  0.8111001850122538
  0.5055427394874108  0.0064981313507227  0.0053374531465640
  0.9529375016412146  0.4048857387711017  0.8991150292036412
  0.4925467117924336  0.4484585268687419  0.3978706145157632
  1.0015821415037065  0.9498358035464071  0.5181255181389881
  0.3964367943581164  0.0665948410731707  0.0732326297017645
  0.6032644944003419 -0.0561961932265729  0.9311981156808233
  0.8712446745320089  0.5319451268770248 -0.0069726634201238
  0.1563860609467184  0.5575883236175633  0.9384240075046169
  0.0696458167333284  0.6066568036784016  0.0260857475561352
 
             NaN             NaN             NaN
             NaN             NaN             NaN
             NaN             NaN             NaN
             NaN             NaN             NaN
             NaN             NaN             NaN
             NaN             NaN             NaN
             NaN             NaN             NaN
             NaN             NaN             NaN
             NaN             NaN             NaN
             NaN             NaN             NaN
             NaN             NaN             NaN
             NaN             NaN             NaN
             NaN             NaN             NaN
             NaN             NaN             NaN
             NaN             NaN             NaN
             NaN             NaN             NaN
             NaN             NaN             NaN
             NaN             NaN             NaN
             NaN             NaN             NaN
             NaN             NaN             NaN
             NaN             NaN             NaN
             NaN             NaN             NaN
             NaN             NaN             NaN
             NaN             NaN             NaN
             NaN             NaN             NaN
             NaN             NaN             NaN
             NaN             NaN             NaN
             NaN             NaN             NaN
             NaN             NaN             NaN
             NaN             NaN             NaN
             NaN             NaN             NaN
             NaN             NaN             NaN
             NaN             NaN             NaN
             NaN             NaN             NaN
             NaN             NaN             NaN
             NaN             NaN             NaN
             NaN             NaN             NaN
             NaN             NaN             NaN
             NaN             NaN             NaN
             NaN             NaN             NaN
             NaN             NaN             NaN
             NaN             NaN             NaN
             NaN             NaN             NaN
             NaN             NaN             NaN
             NaN             NaN             NaN
             NaN             NaN             NaN
             NaN             NaN             NaN
             NaN             NaN             NaN
             NaN             NaN             NaN
             NaN             NaN             NaN
             NaN             NaN             NaN
             NaN             NaN             NaN
             NaN             NaN             NaN
             NaN             NaN             NaN
             NaN             NaN             NaN
             NaN             NaN             NaN
             NaN             NaN             NaN
             NaN             NaN             NaN
             NaN             NaN             NaN
             NaN             NaN             NaN
             NaN             NaN             NaN
             NaN             NaN             NaN
             NaN             NaN             NaN
             NaN             NaN             NaN
             NaN             NaN             NaN
             NaN             NaN             NaN
             NaN             NaN             NaN
             NaN             NaN             NaN
             NaN             NaN             NaN
             NaN             NaN             NaN
             NaN             NaN             NaN
             NaN             NaN             NaN
             NaN             NaN             NaN
             NaN             NaN             NaN
             NaN             NaN             NaN
             NaN             NaN             NaN
             NaN             NaN             NaN
             NaN             NaN             NaN
             NaN             NaN             NaN
             NaN             NaN             NaN
             NaN             NaN             NaN
