N    C    H    Pd   O    Li
   1.00000000000000     
  22.6118925994191002   1.1311951672203100   3.2154943242945802
   0.4380767755352270   7.2666891203487296   0.1228996278286520
  -1.7265877041129600  -0.0597281516535957   7.0893724908892501
N    C    H    Pd   O    Li
12  20  40  4  4  1  
Direct
  0.4777728176488722  0.1938799820671531  0.7896514904629884  
  0.4782556558328486  0.8095103423393502  0.1799316666499803  
  0.4780124657956644  0.1971082330577126  0.1759896514411561  
  0.4784978130398931  0.8067975782584538  0.7938008438979441  
  0.0240620172537803  0.6047148644238703  0.8254916029897438  
  0.0072126377610300  0.2360421060457237  0.2315183735569571  
  0.0533074093993251  0.6283106961040595  0.2243395295671209  
  0.9854075136356532  0.2222716676926977  0.8218064762541649  
  0.1973631029827357  0.0609104230648402  0.0353130784637918  
  0.7780857917417110  0.9976770761625025  0.8196229176577747  
  0.7499693251081195  0.4923400618659214  0.2196757597103436  
  0.2788975403837526  0.5256594355002641  0.9376917206634250  
  0.4787649926448982  0.3067115618153585  0.6766296286051227  
  0.4791573387436691  0.6961795504856454  0.2936760350883036  
  0.4790060074302184  0.3100284019631670  0.2905005675768544  
  0.4792168988574182  0.6932970279687166  0.6797718758123217  
  0.0184400347331180  0.7197308892890859  0.7108272631427709  
  0.0077110698202496  0.1170799941618359  0.3389741469776681  
  0.0358236190298847  0.7333595492657060  0.3354519431956964  
  0.9926503831507000  0.1070309542646954  0.7106754937442936  
  0.2424975242118090  0.0546009880267698  0.9218265879649616  
  0.7511945193964296  0.9408919960510252  0.9693845041121882  
  0.7697307744967442  0.4479986089028603  0.0486156394196071  
  0.2190904352684485  0.5241691567191862  0.8974304989492478  
  0.2120587204579679  0.0468180907599990  0.2349677536318515  
  0.7413369230976190  0.0443061709994104  0.6467669440585530  
  0.7936414815617067  0.5174085116666018  0.3761925653190919  
  0.3184710328137458  0.4515081715392565  0.8015090990542584  
  0.1394218999283093  0.0769319702521270  0.9665259355107700  
  0.8363004564919232  0.0206265214927251  0.8342545879493731  
  0.6915570594064783  0.5249204169003970  0.2404415859789693  
  0.3023942000294690  0.5969779788819711  0.0977054326774613  
  0.1953262714649109  0.9243080209424251  0.2884156696176640  
  0.7330103101460229  0.1951821076795474  0.6314471306439491  
  0.7634853487937973  0.9848546889920996  0.5298147380751098  
  0.1919692524455550  0.1697608031332287  0.3025862604472256  
  0.7800223913313147  0.4581802099590476  0.5011103685682334  
  0.3365747375428357  0.5648779668396747  0.7354661639306379  
  0.3549568633691304  0.3583795972254746  0.8700079208065867  
  0.7974547368619036  0.6653347268125739  0.3961815881545740  
  0.1609474374197150  0.7435571523168398  0.5397804672773276  
  0.8790968235272426  0.0835142546833413  0.3759405301815816  
  0.9137466716633940  0.6259162996082449  0.1127564602988916  
  0.1188522614217327  0.3694195781586346  0.5108392080065157  
  0.6077622289914281  0.2417029264953084  0.8667832122845138  
  0.3458135341024484  0.8627065133916658  0.5536861503897216  
  0.3467414999618794  0.2092969612294717  0.4109459537807973  
  0.6065921857273270  0.0473516106173758  0.3963497575757691  
  0.1430835298467878  0.3039835801137835  0.5597328440021359  
  0.8862410606881659  0.6886420339235978  0.1296749280196822  
  0.8524210990361076  0.0511057458242679  0.3218502128606990  
  0.1798906276963536  0.8102022523031930  0.5889606835450163  
  0.6214949475968604  0.6215002516896134  0.6585536499718331  
  0.3342231346010945  0.2896665370145795  0.3497501011572623  
  0.3182855117400276  0.9080236400755644  0.5915390495643946  
  0.6366961956159248  0.2825129487733055  0.8725673080906706  
  0.1057264631808528  0.0872663433486134  0.0621433522622231  
  0.8552410568274272  0.0673612183283453  0.7146245878674514  
  0.8619279676461563  0.9902634503098192  0.9656707854828396  
  0.1292229111159109  0.0872234544645735  0.8184664436670929  
  0.6782819784541281  0.5617729864548953  0.3758214112536722  
  0.3500108215326250  0.5963114651615851  0.1201926701265126  
  0.2722654848659254  0.6504373104333603  0.1960929355904812  
  0.6604111630933814  0.5123995949162565  0.1201748891465867  
  0.2601312092612690  0.0360263314945709  0.2665667211038782  
  0.6989787702423077  0.9878411572387970  0.6498784818575628  
  0.8367015366772891  0.4472098062539668  0.3480153632319560  
  0.2936669484477225  0.3734875094814219  0.6979290899944112  
  0.2868338136032472  0.0365168922254255  0.9996969158256160  
  0.7035701681954022  0.9292249059076454  0.9353143856578330  
  0.8184513245561508  0.4247241997648141  0.0542394689374786  
  0.2066788403393654  0.4592016582876033  0.7649469259956765  
  0.4781001473131269  0.0017923843004199  0.9849877534363812  
  0.0120839390223356  0.4160574715055973  0.0234852234214300  
  0.4796449455295984  0.5013872574197192  0.4855128479010638  
  0.0117748735914138  0.9164784149227976  0.5229849227843123  
  0.2345102771298355  0.0676503893471893  0.7513877508118736  
  0.7778261725334564  0.9064209023410534  0.1230123297947732  
  0.7361820894620601  0.4357039716409048  0.9066038253909626  
  0.1822152146054156  0.5893910385629291  0.0032160119893247  
  0.1005838114186614  0.6255403756334510  0.0088533467219150  
